P-3m1                                   
   1.00000000000000     
    12.4501695632999994    0.0000000000000000    0.0000000000000000
    -6.2251106248000001   10.7821482026000002    0.0000000000000000
     0.0000000000000000    0.0000000000000000    8.9975166321000000
   Mg   O    H 
    32    64    64
Direct
  0.9818695659912344  0.9914433897731039  0.2488526390486955
  0.0025164244143670  0.0035906186052649  0.7528023463678725
  0.0139797528723875  0.2607677766842880  0.2423166471283125
  0.0124239344845893  0.2551274321558372  0.7420776178711539
  0.9993917953028387  0.5032777883242191  0.2528455310800548
  0.0012755675132576  0.4955037062118193  0.7647156519196178
  0.0147928333585645  0.7553924607892764  0.2669393286263047
  0.9960315803322335  0.7421515980811693  0.7569002010726301
  0.2405311139284421  0.9846548191765671  0.2544053407404919
  0.2466611745027537  0.9834004804076639  0.7522306789679617
  0.2552748982637638  0.2480314424877003  0.2396292508200426
  0.2498231734556380  0.2422363016899579  0.7300479763453851
  0.2565475503898723  0.5041801998621314  0.2503903129236465
  0.2522743937029109  0.5009889453249390  0.7482410887376587
  0.2465708480798315  0.7556396113365482  0.2625839637294523
  0.2554855393838811  0.7566241452707274  0.7573145828142178
  0.4971394876265507  0.9923672101580547  0.2606082221832601
  0.5027135887307477  0.0022088457117805  0.7646047717168161
  0.4945746089305036  0.2538657800364968  0.2597287118602544
  0.4980765175009738  0.2425168197706076  0.7410036773455858
  0.4977525542893443  0.4917661264549287  0.2411978355907224
  0.5008616137597582  0.5056498623268016  0.7474546444197403
  0.4872594190082053  0.7391804609156613  0.2442735405101047
  0.5057293716589649  0.7652456805346629  0.7043328466817449
  0.7415053297555928  0.9975661858942849  0.2378214383104962
  0.7522278368101244  0.0002415557087047  0.7652492039744293
  0.7465881623386874  0.2531311561347541  0.2597751649088751
  0.7392106333096747  0.2461291849184727  0.7511078070267740
  0.7503139658594269  0.5039288999100892  0.2603389510952381
  0.7482022751473030  0.4968825994582545  0.7487127567324313
  0.7508570558058800  0.7482946506877785  0.2583245260444323
  0.7526892969204727  0.7473210188841342  0.7406149257326016
  0.1681862927436853  0.0958951466459293  0.1183296793137869
  0.1784723959017354  0.0663167672924939  0.6423166037269364
  0.1896016182017274  0.3451698799890938  0.1342568261820412
  0.1748682360634060  0.3374600908700439  0.6225167780051705
  0.1717171467309661  0.5906704454020849  0.1331706052457619
  0.1548409788620718  0.5648153883908644  0.6376645276860183
  0.1660957702209723  0.8370327168971184  0.1420316841252751
  0.1582442248327402  0.8135022365128669  0.6323604005101136
  0.4109214798544702  0.0939213436438827  0.1200687726679928
  0.4102277830816956  0.0921080646109571  0.6281461913923749
  0.4148145991317670  0.3320445079761102  0.1161224800347013
  0.4129438049804000  0.3295687097141311  0.6147196747237914
  0.4111085644182658  0.5824059282364002  0.1123098339112900
  0.4145924153958125  0.5821837748828886  0.6242158857614810
  0.4104658059744383  0.8318477723701554  0.1379596722132558
  0.4085667093583560  0.8344672017703906  0.6264885978262030
  0.6542584972753412  0.0802187902767360  0.1431979863952741
  0.6646931860905470  0.0796570479622738  0.6448680794050089
  0.6675970850325104  0.3334617844002080  0.1158584264327559
  0.6695497139869655  0.3274732112528672  0.6231231505074457
  0.6597195860443983  0.5823164719824488  0.1281824072376482
  0.6738222631594123  0.5944107711607405  0.6265690956618385
  0.6549319522947155  0.8281144711190966  0.1422148483537710
  0.6703861202448451  0.8275274267526920  0.6267917430139772
  0.9102730559116305  0.0803270469371388  0.1235670455612636
  0.9269016521232600  0.0927300286244602  0.6371007329477888
  0.9240385621470396  0.3303647766989222  0.1334929363205188
  0.9216025638561672  0.3326360362138354  0.6171653330434848
  0.9143533030123495  0.5860128723449168  0.1325575867034425
  0.9097170643365262  0.5761801287598661  0.6334086494943699
  0.9135242260585400  0.8258130320491334  0.1388722333218622
  0.9179213119522964  0.8385881463129625  0.6303071364079555
  0.0854573650244974  0.1690342121804122  0.3593615316538255
  0.0869439380654909  0.1669889545825412  0.8727525680717558
  0.0939378664490180  0.4227819186391429  0.3621097047913858
  0.1013458197451126  0.4212819431944322  0.8829449690905001
  0.0745208023972309  0.6613278952235929  0.3876675010236983
  0.0791456929174271  0.6594027722967311  0.8771184963850356
  0.0799655986979278  0.9302487408540812  0.3688465257959460
  0.0976845129285403  0.9219638070332209  0.8854420851852214
  0.3296161736009985  0.1576800051341134  0.3697549716810193
  0.3333238083518761  0.1581957593321396  0.8680729060711903
  0.3436359569333025  0.4199838232239768  0.3683502186908709
  0.3321859236858360  0.4071018514869954  0.8722396168438455
  0.3350270012223889  0.6833908300563657  0.3686937287606331
  0.3412812979265571  0.6721345049104653  0.8593961113553018
  0.3306201978071579  0.9308698287577981  0.3665364834664674
  0.3411217545104769  0.9183216019688636  0.8719798608237923
  0.5676161800850591  0.1624799231197067  0.3659256985453008
  0.5949654811835560  0.1785083784304752  0.8654985011525776
  0.5928270636641451  0.4211214204530573  0.3706838665831093
  0.5850997146893867  0.4269325033872761  0.8635242470918829
  0.5670347070915503  0.6629003459429976  0.3670028800591784
  0.5922423544031474  0.6716895743750915  0.8688079796702513
  0.5853357790931181  0.9196172432799996  0.3751621602601533
  0.5743643154430909  0.9142545962092532  0.8525624483407339
  0.8326302490488242  0.1704912765418714  0.3612925590095976
  0.8345655151132761  0.1782060670815503  0.8847700466147421
  0.8321342485161559  0.4162476275983317  0.3810792400188162
  0.8303249673047821  0.4127438787482325  0.8821443282320084
  0.8472672663441558  0.6768810459403484  0.3672447693286269
  0.8426005717982216  0.6630932191701900  0.8567505862056209
  0.8274243265102794  0.9199046445473559  0.3751264932489048
  0.8337929430891984  0.9252650538341618  0.8688882412904665
  0.1238073809957003  0.0969412457861060  0.0348670378032511
  0.1522276541960881  0.0658415840495561  0.5417563023438609
  0.2013213537008158  0.3465817446697846  0.0234263054171924
  0.2098957755400011  0.3699685730205036  0.5194820516031105
  0.1749070938845503  0.5751776146131380  0.0256957038273949
  0.1902047047498264  0.5929607180005715  0.5383007366595752
  0.1275257812415889  0.8254357661427844  0.0393442215797198
  0.1556530289044747  0.8025184131825244  0.5262948695409924
  0.3557688708754353  0.0922990806785869  0.0418062900616596
  0.4588503893647237  0.0898207471007207  0.5489139428963460
  0.4314789210790440  0.3022191376568654  0.0224941073659482
  0.3784060186488326  0.2664982742343415  0.5277686518089468
  0.3483712443378877  0.5318679228267776  0.0351299368900675
  0.3893339541008121  0.5441103139173208  0.5211113157204497
  0.4038756535748528  0.8390010804258687  0.0311081297644366
  0.4242444306197559  0.8521608002742089  0.5207920262364443
  0.6589225086571893  0.0814218003893628  0.0343870247085809
  0.6559547955195064  0.0670285229276404  0.5392580078461885
  0.6373374332288174  0.3153841352576526  0.0148807852227688
  0.6913168525309369  0.3755314900064907  0.5212755406835328
  0.6624099287290615  0.6233490435587523  0.0305288645277570
  0.6635455893339418  0.5778176395005030  0.5204807649066820
  0.6443870363865735  0.8039014530803174  0.0345111471686578
  0.6768235454629957  0.7989709737463583  0.5313978447979234
  0.8976181998557738  0.0489823381713019  0.0190359636452390
  0.9095312991312344  0.1188819720696291  0.5429690833184443
  0.9055684550797118  0.3265972216499453  0.0322831627736504
  0.9527739991954576  0.3281904286784169  0.5223113282029441
  0.8862928884795427  0.5792925141378250  0.0322128928587116
  0.8854731649521197  0.5483470978139673  0.5326855161629254
  0.9638923229484702  0.8631447938061809  0.0343716841410367
  0.8999355396591306  0.8519693750343382  0.5293397876111250
  0.0874018579340260  0.1649672101603392  0.4709094142225211
  0.0516019508934418  0.1741812485773157  0.9611676907357416
  0.1060807382837822  0.4509551563366891  0.4627677657330553
  0.0699173245012115  0.4045579796003019  0.9878743660326100
  0.0507979762764185  0.6392176782114020  0.4898980674525562
  0.0822616438611452  0.6609885803140712  0.9845326398286817
  0.0864571586456749  0.9164949292789972  0.4762758728196564
  0.1004418558772213  0.9655609763415304  0.9830271551644547
  0.3289531197941428  0.1132536601465945  0.4536836438438841
  0.2813650893524665  0.1521951431336933  0.9614313991422745
  0.3587308248401823  0.3833105991149545  0.4626563013335754
  0.3611628055542764  0.3814300035097459  0.9593498369288085
  0.3653462824622121  0.6829852774327041  0.4747677014807558
  0.3792348914836902  0.6797644531589029  0.9549350544177300
  0.3078560601910421  0.9297566080213537  0.4700923711966922
  0.3111835799163877  0.9171204369059074  0.9712304272742839
  0.5981514449279397  0.2016029530877984  0.4613122804836968
  0.5609473674324701  0.1565494232236456  0.9640319014212620
  0.5512353624188977  0.4024967831486674  0.4685467911697666
  0.5765483295592074  0.4345484900795380  0.9657677248079660
  0.5559835339409568  0.6404240005951913  0.4819056227178330
  0.5436494949728018  0.6303241648023777  0.9519393537267394
  0.5961193635780406  0.9022904702934257  0.4795175154784124
  0.5761162909540922  0.9053968885011190  0.9651517493423792
  0.7822045980061386  0.1500941002264949  0.4579700432824777
  0.8551866188357092  0.1549208595871241  0.9750954061792526
  0.8499475446935417  0.3833666409400266  0.4771203384406580
  0.8023365850003809  0.4102986392096056  0.9820769782405803
  0.8589759581363273  0.6659054145808361  0.4737159402531659
  0.8422788628266151  0.6761627531187039  0.9582552448068489
  0.8327347529267122  0.9389330416027118  0.4817275391108092
  0.8262345543587915  0.9131308529008643  0.9771752257432257
 
  0.48845314E-02  0.62693414E-02 -0.25946548E-02
 -0.24981441E-02  0.53019583E-02  0.74892567E-02
  0.11891208E-02 -0.39748267E-02 -0.53293427E-02
  0.44115978E-02 -0.61743662E-02  0.71297297E-02
 -0.51808269E-02  0.25385985E-02 -0.43546212E-02
 -0.48506112E-02 -0.13034651E-04  0.14135438E-02
  0.69383305E-02 -0.10940352E-02 -0.25771381E-02
  0.24005538E-02 -0.28691727E-02 -0.96558429E-03
  0.31260058E-03  0.13953764E-02  0.29237062E-02
  0.43218064E-02 -0.34255453E-02 -0.71266667E-02
 -0.69199135E-02 -0.37016062E-02  0.15546604E-02
 -0.65374376E-02  0.23065595E-03 -0.52765484E-02
 -0.44825014E-02  0.37276278E-02  0.13930422E-01
  0.64025380E-02  0.17360433E-02  0.72382277E-02
 -0.23863367E-02  0.92457419E-02  0.24480971E-02
 -0.10141500E-01 -0.12809001E-02  0.41423747E-02
 -0.27241325E-02  0.54610034E-02 -0.31082799E-02
  0.12330554E-02 -0.75668773E-02 -0.12686739E-01
  0.86092725E-02 -0.18503225E-02  0.40645564E-02
 -0.11318337E-02 -0.16706887E-02  0.65763544E-02
 -0.47931773E-03 -0.11874525E-02 -0.48550215E-02
  0.84307439E-03 -0.26249404E-02  0.26584057E-02
 -0.19671919E-02  0.87800474E-02 -0.71270526E-02
 -0.71290114E-03  0.63098915E-02  0.21940157E-02
  0.53099786E-02 -0.15940755E-02 -0.65380159E-02
  0.30149164E-02 -0.52064183E-02  0.12134869E-02
  0.61949303E-02  0.35159356E-02  0.11692672E-02
  0.59096990E-02  0.15775943E-02 -0.27636656E-03
  0.77074628E-03 -0.65510643E-02 -0.10969946E-01
 -0.27190424E-02 -0.39633924E-02  0.53431431E-03
 -0.46419891E-02  0.32280058E-02 -0.78969329E-03
  0.92850195E-02 -0.17359679E-02 -0.66302771E-02
 -0.92657820E-02  0.54293556E-02 -0.11173471E-03
  0.78708378E-03 -0.28727123E-02  0.11373654E-02
  0.35842876E-02 -0.40867110E-02 -0.21556958E-02
 -0.50184355E-02  0.13345904E-02 -0.47258020E-02
 -0.26526420E-02 -0.80285209E-03  0.94826589E-02
  0.26427510E-02  0.11180448E-01 -0.81796515E-05
 -0.99203024E-02 -0.64536814E-02 -0.17619793E-02
 -0.31312843E-02 -0.34292673E-02  0.57796701E-02
 -0.56245707E-02  0.11861733E-02 -0.27709917E-02
  0.75896344E-02  0.12021311E-02  0.86957209E-02
 -0.54349582E-02  0.57812232E-02  0.99917529E-02
  0.63452352E-02  0.22496556E-02  0.82839947E-02
  0.90122072E-02 -0.54056744E-03 -0.33700174E-02
 -0.54257210E-02 -0.75891432E-02  0.34710458E-02
  0.38697983E-02 -0.23402623E-02  0.58175041E-02
  0.56119449E-02 -0.84633507E-02 -0.57477116E-02
  0.42657989E-02  0.12551739E-02  0.18073089E-02
 -0.47670359E-02 -0.47851563E-02 -0.90366018E-02
  0.13838906E-02  0.14620055E-02  0.59591407E-03
 -0.86433687E-02 -0.12786193E-03 -0.61941815E-02
  0.63443255E-02 -0.56921564E-03 -0.48264434E-02
  0.46775416E-02  0.22826011E-02 -0.19341434E-02
 -0.42554979E-03 -0.43543126E-02  0.98705194E-02
  0.11588137E-02  0.15053045E-02 -0.17709145E-02
  0.90444824E-03 -0.20363101E-02  0.45577730E-02
 -0.32378800E-02 -0.15400226E-02  0.33080190E-02
 -0.45467642E-02 -0.80911809E-02 -0.60821382E-02
  0.68583555E-03  0.32438616E-02  0.19266888E-02
  0.39026365E-02  0.82053594E-02 -0.21978020E-02
  0.10565590E-03  0.56122833E-02 -0.10749906E-02
 -0.54070743E-02  0.53734054E-02  0.20133063E-02
 -0.26530218E-02 -0.43509316E-02 -0.10702395E-01
  0.42076796E-02  0.45717984E-02  0.16453523E-02
  0.37963254E-02 -0.63464901E-02 -0.48985858E-03
 -0.55647732E-02  0.47844638E-02  0.85613577E-02
  0.29593906E-02  0.58730340E-02 -0.39404514E-02
  0.59784838E-02  0.31881135E-02 -0.80008050E-02
 -0.29157796E-02 -0.47129472E-02  0.31051835E-02
  0.14332656E-01 -0.27702867E-04  0.24472010E-02
 -0.39903798E-02 -0.67482279E-02 -0.15371600E-03
 -0.48848399E-02 -0.38420464E-02 -0.34891793E-02
 -0.64579919E-02 -0.92501675E-03 -0.27576209E-02
 -0.23969927E-03 -0.50031492E-02 -0.36336335E-02
 -0.25910484E-02 -0.11090601E-02 -0.79112901E-04
 -0.29002543E-02  0.63654004E-02 -0.12191019E-01
 -0.15981867E-02  0.14182560E-02 -0.68610352E-02
  0.91537817E-03 -0.10183916E-01  0.39181604E-02
  0.18222994E-02  0.84408638E-02 -0.48133561E-02
 -0.40182865E-02 -0.45684939E-02 -0.55927719E-03
  0.39673986E-02 -0.53179574E-02 -0.17712902E-02
 -0.32730924E-03  0.20457430E-02 -0.26360071E-02
  0.28247822E-02  0.11971275E-02  0.75613407E-02
  0.14318211E-02  0.67726880E-03  0.61786692E-02
  0.46193652E-02  0.45189460E-02  0.27494527E-02
  0.83344737E-03 -0.76578423E-02  0.78548848E-02
  0.31161669E-02 -0.44204217E-02  0.46344022E-02
 -0.68606494E-02 -0.25012181E-02  0.10327946E-01
 -0.13110529E-02  0.53106579E-03  0.10942297E-01
 -0.11329272E-01 -0.13126619E-02 -0.59442429E-02
 -0.20159070E-02 -0.71170123E-03  0.11127097E-01
  0.33295083E-02  0.65742487E-02 -0.58489594E-02
 -0.77437307E-04  0.36495885E-02 -0.25487256E-02
 -0.46852049E-02 -0.64098961E-02 -0.49561743E-02
 -0.31909033E-02  0.12932798E-01  0.11370532E-01
 -0.48573190E-01  0.23898163E-01  0.22470041E-01
  0.87583728E-02 -0.26291269E-02 -0.25195251E-01
  0.42410676E-02  0.22190134E-01  0.24874105E-01
  0.11680505E-01 -0.22604626E-01 -0.12532652E-01
  0.21589012E-01  0.66664033E-02  0.32544312E-01
  0.84718962E-02  0.11731265E-01 -0.19018182E-01
 -0.34748093E-02 -0.52662448E-02  0.36109055E-03
 -0.29604538E-01  0.20142713E-02 -0.20509917E-01
 -0.70183159E-02  0.15475480E-02 -0.13948387E-01
 -0.32925041E-01 -0.20564309E-01  0.55575911E-01
  0.60008430E-02  0.12501530E-01 -0.28953250E-02
  0.15163462E-01  0.74550843E-03  0.13985526E-01
 -0.27225413E-01 -0.28242553E-01 -0.71426912E-02
 -0.27686883E-01 -0.14324762E-01 -0.16195138E-01
  0.79468497E-03  0.17739669E-01  0.10773573E-01
  0.51129641E-01  0.20282831E-01 -0.60919192E-03
 -0.93198951E-02 -0.14404331E-01  0.78994199E-02
 -0.32766195E-01  0.14136698E-01 -0.17914120E-01
  0.81220806E-02 -0.60732527E-03 -0.68194296E-02
  0.18387443E-01 -0.27227705E-01 -0.22265729E-01
  0.64465952E-02  0.13414652E-01  0.28527297E-01
 -0.10859355E-01 -0.16033737E-01  0.18048189E-01
  0.21840205E-02 -0.20163356E-01 -0.68529712E-02
 -0.24675395E-01  0.10987563E-01 -0.13393409E-01
  0.11400788E-01  0.36032403E-02  0.19839627E-01
 -0.22434397E-01 -0.86149858E-02  0.20882726E-01
  0.23802263E-02  0.15657147E-01 -0.14847839E-01
  0.26578095E-01 -0.80513900E-03 -0.12939239E-02
  0.12544772E-01 -0.21632894E-01  0.13259498E-01
 -0.17943664E-01  0.15683156E-03  0.14547069E-01
  0.19573625E-01 -0.29834047E-01 -0.31201401E-01
  0.16406083E-01  0.26924331E-02 -0.26814727E-02
 -0.20595504E-01  0.51896509E-02 -0.34050748E-01
  0.23196300E-02  0.70337678E-02 -0.12949205E-01
 -0.13458282E-01  0.22983737E-01  0.66943565E-01
  0.25342902E-02 -0.15864122E-01 -0.49292519E-01
  0.74968771E-03  0.27131082E-01 -0.12533749E-01
  0.52339992E-02 -0.26971666E-01 -0.16140273E-01
  0.78934754E-02 -0.63590729E-02  0.20582472E-01
  0.19767242E-01 -0.11480221E-01  0.44064738E-02
  0.12485059E-01  0.61989685E-03 -0.29231334E-01
  0.26958825E-01  0.14582033E-01 -0.20885019E-01
  0.10473182E-01 -0.58873382E-02  0.21540909E-02
  0.24859426E-01 -0.13479098E-01  0.13893346E-01
 -0.98819520E-02  0.47221120E-01 -0.16909580E-01
  0.15300645E-01 -0.72169382E-02 -0.14424066E-01
  0.30639329E-02 -0.18363260E-01 -0.40279009E-01
  0.47723608E-02 -0.28830647E-02  0.24554233E-02
  0.48110982E-03 -0.38964274E-01  0.26795448E-01
 -0.24880050E-01 -0.92727470E-02  0.76424492E-03
  0.41297366E-01  0.42387362E-02 -0.19792799E-01
  0.20249351E-01  0.27138526E-01  0.14606057E-01
  0.29643201E-01 -0.38436354E-03  0.25792305E-02
 -0.11808295E-01  0.18383181E-01  0.35170894E-01
 -0.12973791E-01  0.30698122E-01 -0.27438494E-01
  0.13658767E-01 -0.56514082E-02 -0.11086124E-01
 -0.17927684E-01  0.14518844E-01 -0.16439007E-01
 -0.15869082E-01  0.41169440E-01  0.24432783E-01
 -0.68976665E-02  0.17865848E-01 -0.26796603E-01
 -0.23432073E-01 -0.19767311E-01 -0.30367374E-01
 -0.36843384E-02  0.13047738E-02 -0.31345204E-01
  0.20647965E-01  0.25453473E-01  0.57531720E-03
 -0.18898917E-02 -0.65729640E-02 -0.39842387E-01
 -0.26993562E-01  0.30275537E-01 -0.50551330E-02
 
           1
  0.500000000000000     
  0.66613850E+00  0.15435152E-02 -0.27642727E-19  0.00000000E+00
  0.98221109E+00  0.99173412E+00  0.24870845E+00
  0.25390329E-02  0.38364860E-02  0.75321853E+00
  0.13935345E-01  0.26058345E+00  0.24202049E+00
  0.12457942E-01  0.25484111E+00  0.74247382E+00
  0.99924259E+00  0.50339551E+00  0.25260354E+00
  0.10804643E-02  0.49550310E+00  0.76479420E+00
  0.15046110E-01  0.75534173E+00  0.26679611E+00
  0.99606146E+00  0.74201855E+00  0.75684654E+00
  0.24057602E+00  0.98471953E+00  0.25456781E+00
  0.24675531E+00  0.98324163E+00  0.75183464E+00
  0.25491117E+00  0.24785979E+00  0.23971564E+00
  0.24956598E+00  0.24224700E+00  0.72975475E+00
  0.25645396E+00  0.50435306E+00  0.25116444E+00
  0.25257177E+00  0.50106945E+00  0.74864332E+00
  0.24668939E+00  0.75606836E+00  0.26272001E+00
  0.25504856E+00  0.75656475E+00  0.75754478E+00
  0.49715671E+00  0.99262045E+00  0.26043549E+00
  0.50258766E+00  0.18579473E-02  0.76389976E+00
  0.49487746E+00  0.25377998E+00  0.25995458E+00
  0.49799233E+00  0.24243935E+00  0.74136913E+00
  0.49770577E+00  0.49171106E+00  0.24092804E+00
  0.50083461E+00  0.50552814E+00  0.74760237E+00
  0.48738400E+00  0.73958762E+00  0.24387748E+00
  0.50584705E+00  0.76553829E+00  0.70445477E+00
  0.74168162E+00  0.99749226E+00  0.23745811E+00
  0.75222820E+00  0.11874437E-06  0.76531664E+00
  0.74691847E+00  0.25329420E+00  0.25984014E+00
  0.73948455E+00  0.24620234E+00  0.75109245E+00
  0.75019302E+00  0.50362511E+00  0.25972934E+00
  0.74800118E+00  0.49669881E+00  0.74874245E+00
  0.75074548E+00  0.74844434E+00  0.25828064E+00
  0.75302193E+00  0.74724052E+00  0.74024648E+00
  0.16794007E+00  0.96146922E-01  0.11832347E+00
  0.17843740E+00  0.66183551E-01  0.64237981E+00
  0.18965081E+00  0.34498037E+00  0.13413703E+00
  0.17469764E+00  0.33752198E+00  0.62225416E+00
  0.17159200E+00  0.59063321E+00  0.13369757E+00
  0.15520635E+00  0.56533386E+00  0.63766407E+00
  0.16554773E+00  0.83673344E+00  0.14193377E+00
  0.15803896E+00  0.81334321E+00  0.63268158E+00
  0.41072310E+00  0.93976350E-01  0.11991479E+00
  0.41056046E+00  0.92163811E-01  0.62862942E+00
  0.41473038E+00  0.33231260E+00  0.11667773E+00
  0.41325079E+00  0.32967303E+00  0.61518002E+00
  0.41145796E+00  0.58238086E+00  0.11212256E+00
  0.41419855E+00  0.58183184E+00  0.62440877E+00
  0.41056695E+00  0.83173925E+00  0.13828296E+00
  0.40859585E+00  0.83407473E+00  0.62616919E+00
  0.65445892E+00  0.80276996E-01  0.14329842E+00
  0.66439079E+00  0.79435146E-01  0.64436591E+00
  0.66768656E+00  0.33352958E+00  0.11589154E+00
  0.66919963E+00  0.32746728E+00  0.62277893E+00
  0.65996118E+00  0.58229008E+00  0.12791420E+00
  0.67406304E+00  0.59451662E+00  0.62646161E+00
  0.65481390E+00  0.82791255E+00  0.14276336E+00
  0.67046756E+00  0.82759723E+00  0.62669333E+00
  0.91026216E+00  0.80232617E-01  0.12382033E+00
  0.92673591E+00  0.92658613E-01  0.63728456E+00
  0.92366836E+00  0.32998956E+00  0.13315495E+00
  0.92170532E+00  0.33278646E+00  0.61727240E+00
  0.91470029E+00  0.58639338E+00  0.13243545E+00
  0.90985144E+00  0.57644039E+00  0.63334891E+00
  0.91343167E+00  0.82606221E+00  0.13898411E+00
  0.91771388E+00  0.83838638E+00  0.62971239E+00
  0.85732350E-01  0.16924622E+00  0.35945297E+00
  0.86949246E-01  0.16669465E+00  0.87272535E+00
  0.93825320E-01  0.42300379E+00  0.36258547E+00
  0.10160084E+00  0.42155429E+00  0.88272599E+00
  0.74834820E-01  0.66147574E+00  0.38722289E+00
  0.78919318E-01  0.65918422E+00  0.87729105E+00
  0.80540557E-01  0.93024746E+00  0.36898252E+00
  0.97367791E-01  0.92165087E+00  0.88543354E+00
  0.32933091E+00  0.15750184E+00  0.36956107E+00
  0.33304301E+00  0.15815286E+00  0.86791966E+00
  0.34351032E+00  0.41975181E+00  0.36814829E+00
  0.33205615E+00  0.40705042E+00  0.87223522E+00
  0.33505812E+00  0.68368601E+00  0.36801626E+00
  0.34125000E+00  0.67220027E+00  0.85901484E+00
  0.33042083E+00  0.93039757E+00  0.36675422E+00
  0.34139065E+00  0.91871303E+00  0.87171238E+00
  0.56734888E+00  0.16226807E+00  0.36589462E+00
  0.59500151E+00  0.17826177E+00  0.86540007E+00
  0.59286135E+00  0.42121629E+00  0.37053738E+00
  0.58524092E+00  0.42698802E+00  0.86394444E+00
  0.56710791E+00  0.66293175E+00  0.36734623E+00
  0.59253265E+00  0.67189913E+00  0.86896077E+00
  0.58519169E+00  0.91926213E+00  0.37559866E+00
  0.57438697E+00  0.91404961E+00  0.85281999E+00
  0.83229673E+00  0.17037529E+00  0.36186649E+00
  0.83452518E+00  0.17823069E+00  0.88537812E+00
  0.83164883E+00  0.41618676E+00  0.38074891E+00
  0.83022751E+00  0.41271088E+00  0.88276267E+00
  0.84755341E+00  0.67718591E+00  0.36691974E+00
  0.84268208E+00  0.66326246E+00  0.85660895E+00
  0.82708754E+00  0.91960740E+00  0.37485107E+00
  0.83396466E+00  0.92586479E+00  0.86952011E+00
  0.12241079E+00  0.98049474E-01  0.36115718E-01
  0.15251843E+00  0.65719664E-01  0.54035618E+00
  0.20200619E+00  0.34761077E+00  0.24808582E-01
  0.20984074E+00  0.36892033E+00  0.51878560E+00
  0.17592868E+00  0.57548676E+00  0.27504220E-01
  0.19081694E+00  0.59350473E+00  0.53724388E+00
  0.12726413E+00  0.82519155E+00  0.39364288E-01
  0.15451081E+00  0.80261182E+00  0.52515512E+00
  0.35552290E+00  0.92370845E-01  0.41031166E-01
  0.45705130E+00  0.88867119E-01  0.55200235E+00
  0.43200978E+00  0.30279887E+00  0.22333212E-01
  0.37903227E+00  0.26653285E+00  0.52854584E+00
  0.34662302E+00  0.53055823E+00  0.34733011E-01
  0.38788990E+00  0.54344603E+00  0.52021134E+00
  0.40431889E+00  0.83982372E+00  0.31706827E-01
  0.42676809E+00  0.85310137E+00  0.52075817E+00
  0.65821423E+00  0.80753829E-01  0.34826002E-01
  0.65496668E+00  0.67684083E-01  0.53826250E+00
  0.63764953E+00  0.31535597E+00  0.14501823E-01
  0.69142398E+00  0.37426886E+00  0.52003821E+00
  0.66297986E+00  0.62397112E+00  0.32114152E-01
  0.66273771E+00  0.57707411E+00  0.52148372E+00
  0.64400723E+00  0.80296642E+00  0.34130321E-01
  0.67608734E+00  0.79948050E+00  0.53065356E+00
  0.89815960E+00  0.49149431E-01  0.20138469E-01
  0.90843058E+00  0.11848247E+00  0.54412955E+00
  0.90602708E+00  0.32732329E+00  0.31458055E-01
  0.95382271E+00  0.32815309E+00  0.52223942E+00
  0.88629510E+00  0.57828933E+00  0.32949735E-01
  0.88475618E+00  0.54835437E+00  0.53349391E+00
  0.96398665E+00  0.86176130E+00  0.32637795E-01
  0.90065684E+00  0.85209423E+00  0.52919078E+00
  0.86695071E-01  0.16520787E+00  0.46901718E+00
  0.51858196E-01  0.17450743E+00  0.96044809E+00
  0.10607317E+00  0.45202098E+00  0.46648788E+00
  0.69651267E-01  0.40382231E+00  0.98513514E+00
  0.51457161E-01  0.64047583E+00  0.48920156E+00
  0.81846461E-01  0.65973782E+00  0.98363571E+00
  0.86626716E-01  0.91620004E+00  0.47741966E+00
  0.10096952E+00  0.96502860E+00  0.98327203E+00
  0.32946889E+00  0.11328241E+00  0.45205923E+00
  0.28278587E+00  0.15287136E+00  0.96027080E+00
  0.35901492E+00  0.38303759E+00  0.46277601E+00
  0.36184863E+00  0.38080494E+00  0.96012190E+00
  0.36604432E+00  0.68517506E+00  0.47382802E+00
  0.37968203E+00  0.67942978E+00  0.95413350E+00
  0.30755333E+00  0.92890505E+00  0.46785403E+00
  0.31130839E+00  0.91698674E+00  0.97136688E+00
  0.59726732E+00  0.19979606E+00  0.46280133E+00
  0.55973318E+00  0.15611942E+00  0.96407437E+00
  0.55299215E+00  0.40269335E+00  0.46744689E+00
  0.57799079E+00  0.43580698E+00  0.96657940E+00
  0.55716510E+00  0.64040618E+00  0.48204895E+00
  0.54360152E+00  0.63117665E+00  0.95389383E+00
  0.59631012E+00  0.90371403E+00  0.47799273E+00
  0.57653379E+00  0.90513482E+00  0.96453568E+00
  0.78182126E+00  0.15076738E+00  0.45705651E+00
  0.85550389E+00  0.15683001E+00  0.97645316E+00
  0.85008478E+00  0.38419513E+00  0.47563123E+00
  0.80093721E+00  0.40938197E+00  0.98038944E+00
  0.85885825E+00  0.66596592E+00  0.47197406E+00
  0.84369827E+00  0.67734311E+00  0.95828722E+00
  0.83250645E+00  0.93862823E+00  0.47951346E+00
  0.82585248E+00  0.91453482E+00  0.97689431E+00
  0.33670915E-03  0.28627531E-03 -0.14945783E-03
  0.22472416E-04  0.24831128E-03  0.41780656E-03
 -0.43138734E-04 -0.18250783E-03 -0.29860561E-03
  0.36012556E-04 -0.28971492E-03  0.39361298E-03
 -0.14969789E-03  0.11960079E-03 -0.23764839E-03
 -0.19297289E-03  0.81336204E-06  0.78290124E-04
  0.26318623E-03 -0.47717300E-04 -0.14094691E-03
  0.25579369E-04 -0.13475619E-03 -0.49139208E-04
  0.41849521E-04  0.50555833E-04  0.16842752E-03
  0.90153022E-04 -0.16252466E-03 -0.39708082E-03
 -0.36106368E-03 -0.17107984E-03  0.82953871E-04
 -0.25939544E-03  0.83528262E-05 -0.29977323E-03
 -0.92243222E-04  0.17155000E-03  0.77478745E-03
  0.29643556E-03  0.80274282E-04  0.39720648E-03
  0.11783473E-03  0.43247060E-03  0.14028936E-03
 -0.43431638E-03 -0.52454978E-04  0.22799900E-03
  0.17913769E-04  0.25047831E-03 -0.17023270E-03
 -0.12372751E-03 -0.35333565E-03 -0.70376265E-03
  0.30209465E-03 -0.81488943E-04  0.23308461E-03
 -0.85700656E-04 -0.83831161E-04  0.36077999E-03
 -0.48601729E-04 -0.60390913E-04 -0.26726285E-03
 -0.26993373E-04 -0.12086018E-03  0.14873963E-03
  0.12224379E-03  0.40393071E-03 -0.39498734E-03
  0.12214585E-03  0.30003735E-03  0.11031795E-03
  0.17554044E-03 -0.75601418E-04 -0.36803634E-03
  0.75724954E-06 -0.24599829E-03  0.71532706E-04
  0.33121436E-03  0.16464612E-03  0.73876583E-04
  0.26305311E-03  0.68403741E-04 -0.16281509E-04
 -0.12431696E-03 -0.30555514E-03 -0.60395702E-03
 -0.20146834E-03 -0.18329562E-03  0.26079994E-04
 -0.10861475E-03  0.15085255E-03 -0.44498144E-04
  0.33180040E-03 -0.81987148E-04 -0.37471889E-03
 -0.24916826E-03  0.26248581E-03 -0.21004642E-04
 -0.25495536E-04 -0.14012162E-03  0.63593748E-04
  0.55606828E-04 -0.18591973E-03 -0.11098546E-03
 -0.17602605E-03  0.59949197E-04 -0.25677571E-03
 -0.12324939E-03 -0.35625883E-04  0.52520554E-03
  0.35860106E-03  0.51267763E-03  0.25924411E-05
 -0.54143525E-03 -0.29190060E-03 -0.82991225E-04
 -0.20796519E-03 -0.16645070E-03  0.31114806E-03
 -0.19789345E-03  0.58829366E-04 -0.16266211E-03
  0.33786202E-03  0.64011749E-04  0.47385211E-03
 -0.87181371E-04  0.26807547E-03  0.55027236E-03
  0.30940259E-03  0.11134017E-03  0.47146278E-03
  0.35201539E-03 -0.21529917E-04 -0.19022761E-03
 -0.39223246E-03 -0.34910484E-03  0.20364244E-03
  0.99826185E-04 -0.11078082E-03  0.32075366E-03
  0.26218520E-04 -0.39787239E-03 -0.31740523E-03
  0.19888212E-03  0.58867791E-04  0.10590838E-03
 -0.30467656E-03 -0.22306864E-03 -0.50437013E-03
  0.88354823E-04  0.64260947E-04  0.14377120E-04
 -0.35004221E-03 -0.16278701E-04 -0.32942010E-03
  0.23881736E-03 -0.32129313E-04 -0.26729189E-03
  0.24736473E-03  0.11492150E-03 -0.10736536E-03
 -0.12127326E-03 -0.20041312E-03  0.56215112E-03
  0.79304279E-04  0.62085162E-04 -0.10898721E-03
 -0.11455559E-04 -0.91801870E-04  0.25898869E-03
 -0.16226916E-03 -0.67066140E-04  0.18118219E-03
 -0.37456426E-03 -0.38092367E-03 -0.36031358E-03
  0.10823907E-03  0.15049497E-03  0.87637291E-04
  0.34509860E-03  0.38087778E-03 -0.13769430E-03
  0.13166441E-03  0.25846648E-03 -0.65326562E-04
 -0.10795710E-03  0.23508620E-03  0.13838222E-03
 -0.20997921E-03 -0.20369079E-03 -0.60458948E-03
  0.27540229E-03  0.21410274E-03  0.83464137E-04
  0.86988041E-06 -0.29106516E-03 -0.54181759E-05
 -0.11000629E-03  0.22315264E-03  0.48363045E-03
  0.26477745E-03  0.27744017E-03 -0.21931172E-03
  0.30805957E-03  0.14380726E-03 -0.43153643E-03
 -0.23071969E-03 -0.22470950E-03  0.18183178E-03
  0.57201694E-03  0.39758689E-05  0.13015902E-03
 -0.30702264E-03 -0.31143576E-03 -0.17283157E-04
 -0.28515256E-03 -0.19277031E-03 -0.17680394E-03
 -0.27285879E-03 -0.44922088E-04 -0.16285578E-03
 -0.12565699E-03 -0.22551622E-03 -0.21175219E-03
 -0.13213527E-03 -0.52739193E-04  0.46400619E-05
  0.28494502E-04  0.30363284E-03 -0.69654951E-03
 -0.31050663E-04  0.66508572E-04 -0.37152186E-03
 -0.19880727E-03 -0.46288339E-03  0.21191623E-03
  0.27354774E-03  0.39486965E-03 -0.26110815E-03
 -0.27257835E-03 -0.21380015E-03 -0.29307585E-04
  0.47902858E-04 -0.23992457E-03 -0.94205520E-04
  0.42182170E-04  0.97693156E-04 -0.14760343E-03
  0.14422443E-03  0.62524907E-04  0.44413390E-03