P-3m1                                   
   1.00000000000000     
    12.4501695632999994    0.0000000000000000    0.0000000000000000
    -6.2251106248000001   10.7821482026000002    0.0000000000000000
     0.0000000000000000    0.0000000000000000    8.9975166321000000
   Mg   O    H 
    32    64    64
Direct
  0.9997400481935569  0.0016109363708037  0.2572802642582633
  0.0083811999867356  0.0130640885201498  0.7378183165755841
  0.0104166256735400  0.2579818792880040  0.2300412405016717
  0.9989592371609112  0.2619901031200417  0.7438026519718552
  0.0123237768888034  0.4935200574522144  0.2619123213689394
  0.9924848658275603  0.5050244474148766  0.7042149373112113
  0.9906781020283374  0.7313882365686616  0.2680483647837738
  0.0296675917721397  0.7598081748510840  0.7521747243154652
  0.2418161999730106  0.9857244893129776  0.2644756629335596
  0.2549448593940136  0.0125815945324004  0.7692991093259737
  0.2443963554740029  0.2387651361095052  0.2539476617735221
  0.2433647776704876  0.2577548969707545  0.7711284120723614
  0.2487849458020644  0.4870440945424968  0.2961362083203165
  0.2542737541426222  0.5157682520251576  0.7674887859321752
  0.2513558392835014  0.7528415966612111  0.2640145692717683
  0.2738052840420067  0.7693990294823663  0.7797150452566667
  0.4814542403638940  0.9939437325507700  0.2415884868418881
  0.4962866865356531  0.9955415213009475  0.7228902334507046
  0.4932650552369514  0.2423569490592020  0.2868587202570277
  0.4906922627917187  0.2413281411602246  0.7101300032647796
  0.5053623733229524  0.5032552277832798  0.2341943693364673
  0.5018283387426624  0.5083798288337729  0.7549633549017050
  0.4825142015715568  0.7372363680350711  0.2569703046275412
  0.5182202795403450  0.7610251295944062  0.7549377898598847
  0.7463865735944664  0.0132333390054323  0.2510441352320080
  0.7453404954161034  0.9884578144993881  0.7439754082796308
  0.7485136134517049  0.2568254052075645  0.2573001563402598
  0.7472823801066840  0.2431614119741108  0.7475094511091029
  0.7460352271958817  0.4917643792540265  0.2431141946887151
  0.7638908435176616  0.5079846765080698  0.7474195691463091
  0.7483550125378323  0.7626991199007720  0.2446583587577634
  0.7528873118585190  0.7426246241180331  0.7448582502723488
  0.1630229304269157  0.0760333071915358  0.1478379187369301
  0.1687044642347283  0.0979955843816208  0.6301028976128840
  0.1825388089957742  0.3486826334067315  0.1564444558259330
  0.1752903574957344  0.3389437056060993  0.6075560602524281
  0.1725379251298638  0.5794893277323142  0.1434639671214039
  0.1743711656959650  0.6113189984824010  0.6462154231775421
  0.1572635938905321  0.8195518433750825  0.1563999268550053
  0.1702510041883996  0.8627269035801425  0.6176921766649834
  0.4021577082157474  0.0625594809781940  0.1144283102758607
  0.4127832213029099  0.0849104410063570  0.6190269548493716
  0.4150257168663863  0.3366947064762875  0.1265386553868066
  0.4204457517413783  0.3316162834226546  0.6284668543806333
  0.4135750770698365  0.5716377058969745  0.1262877381106864
  0.4009558360088544  0.5649111843133070  0.6419358025419184
  0.3986736551602293  0.8398881734787311  0.1359393952979873
  0.4004154935792044  0.8195112610369807  0.6219907335490826
  0.6692502534366210  0.0785626504731435  0.1193524284074413
  0.6601897352335818  0.0554289860565172  0.6121028985706214
  0.6543509127521548  0.3259916966087000  0.1254895116055062
  0.6714893292067426  0.3317474049718689  0.6350039054750225
  0.6712752838624586  0.5931502355434393  0.1112827563153336
  0.6647053837530462  0.5767180018926057  0.6416553793253824
  0.6720962430153030  0.8527132932645416  0.1332302159886572
  0.6645693101028507  0.8163460264867489  0.6243190703285301
  0.9077147436574624  0.0914774454458391  0.1050127154080448
  0.9131117874711806  0.0806719092183165  0.6134505142969657
  0.9225030286136949  0.3285653277436821  0.1083867063773249
  0.9407947724034285  0.3438029435827409  0.6087257366598442
  0.9159204097948636  0.5804630688344057  0.1345644509705143
  0.9099260406460921  0.5925419661170673  0.6297619819268678
  0.9258035654543417  0.8348206734302080  0.1342550815752329
  0.9040461270173386  0.8184068332901165  0.6328200793395623
  0.0790850317475120  0.1717770103787206  0.3499155761489138
  0.0904739550445850  0.1803843288065433  0.8754743871140449
  0.0710124320729934  0.3975027744046641  0.3725720451744493
  0.0673486385141589  0.4092386896340535  0.8524641814217693
  0.0759464751715570  0.6382775939347749  0.3801534518402284
  0.1155458330604665  0.6836396945972030  0.8923834473546597
  0.0506189203963843  0.8986216896059047  0.3883221141555759
  0.1044109700279466  0.9440361864616552  0.8622617195020887
  0.3284010306986745  0.1607176425118751  0.3640470738355442
  0.3371592776088637  0.1781455599018998  0.8377153043855021
  0.3419336002080022  0.4095056775562824  0.3751096146794551
  0.3398941525735414  0.4202825607444486  0.8910240754035017
  0.3489976348612701  0.6540547454412580  0.3989171412384663
  0.3607817937260928  0.6970250419997948  0.8910078370813830
  0.3066685972024342  0.9135352202509198  0.3982763968641072
  0.3451783256355539  0.9345549140998342  0.8584603314200240
  0.5790031519094379  0.1725808603244218  0.3547511531362932
  0.5955103897838957  0.1410459555072876  0.8429130018694629
  0.5738868390404288  0.4164287078079389  0.3509732601160918
  0.5960990658253417  0.4237348767612258  0.8736640822691892
  0.5966062938208972  0.6687956833286487  0.3580941436591381
  0.5998953000032331  0.6932281689794818  0.8802816460464732
  0.5582920447783243  0.9001038795549908  0.3808418479096592
  0.5871039518343130  0.9117474729274294  0.8549612319803050
  0.8210026927454772  0.1631595566484297  0.3820058036295536
  0.8348215107975030  0.1542972216862400  0.8431257896170133
  0.8233687111654752  0.4010859395938431  0.3701636840565581
  0.8353701070194246  0.4245724108389606  0.8690144488305689
  0.7989187498551803  0.6364779773104484  0.3813115039240395
  0.8674218379345022  0.6781097262618673  0.8724612225090577
  0.8202259225366889  0.9250798533932774  0.3496968401003823
  0.8243634327970564  0.9114750144102932  0.8615991443596627
  0.1424586296297322  0.0771661054169710  0.0457776548591807
  0.1846967586362002  0.1175705844765178  0.5245629341034368
  0.1961824699189361  0.3835070178824249  0.0500335420684062
  0.1671707139709193  0.3829896587203849  0.5222503070418001
  0.2185434003576222  0.6110033795172450  0.0557150282258507
  0.1778333379122673  0.6158926849069674  0.5366295283462685
  0.1392338407760726  0.7821138526615027  0.0539635332129214
  0.2079362238708144  0.8662285130775921  0.5243347612462076
  0.3388909475146613  0.0697144942213251  0.0534247961941605
  0.4104897981685027  0.0751197278226988  0.5185918774470664
  0.4688728375776027  0.3551783166511460  0.0411781714780936
  0.3974258037038780  0.3571016493983138  0.5239952787253230
  0.3913141706432135  0.5436740154088354  0.0173543544796154
  0.3864747737982961  0.5288416674284054  0.5512427000529830
  0.4222387021745779  0.8128048937241890  0.0364113788388002
  0.4095756023473300  0.8158623821671831  0.5210003910163620
  0.6822026592294516  0.1060533290783594  0.0168022046653644
  0.6611649415507181  0.0652283930082580  0.4946907628387339
  0.6903590994106814  0.3520481801410649  0.0259413153222714
  0.6368598141506282  0.3619419992801209  0.5464450549689566
  0.6569734297193707  0.5750262687997831  0.0005651404653527
  0.6601071083869003  0.5827849885513642  0.5355673248019204
  0.6567709727797411  0.8403519395607457  0.0269984529111445
  0.6706974718703405  0.8511926337451351  0.5291695480294143
  0.9297313498331603  0.0497882226686087  0.0269813361524843
  0.9044224547166806  0.0178536230338240  0.5303870728324290
  0.9142879583895079  0.2536430071032004  0.0486817167516624
  0.8946870002282420  0.3055740137046551  0.5132406042294462
  0.9013942411101626  0.5727466965247807  0.0325417926400780
  0.9391456488694166  0.6249197625190475  0.5321401949988696
  0.9345464301042823  0.8356914375650072  0.0374101717593964
  0.8852095840287487  0.8016844513820933  0.5221096501034687
  0.0645866824474688  0.1814556286559907  0.4551160747201660
  0.0721477803694639  0.1957835200728742  0.9850625762346169
  0.0491184134206751  0.3834516802348221  0.4894281455271065
  0.0379714638234726  0.3988907047625654  0.9560052854262358
  0.1048892290243642  0.6797512276262884  0.4662495283810058
  0.0710336443478704  0.6073876032280267  0.9576428423747746
  0.0581797072517707  0.8897041131650134  0.5021007031996265
  0.0966965851914202  0.9386202396842641  0.9659494343179728
  0.3318220103682742  0.1776250656197643  0.4694417381421467
  0.3298079730664718  0.1862417761816714  0.9598849319804791
  0.3034941740398154  0.4056639059089356  0.4791288706673147
  0.3493125250450670  0.3859653791875912  0.9911181706211425
  0.3859101414632618  0.6659352682906294  0.4984836822005694
  0.3886723142696134  0.6825681328456423  0.9942304851351300
  0.3657745503771926  0.9162510776723530  0.4781090735881772
  0.3592237001064409  0.9481785906779748  0.9585602265822655
  0.5915742284682207  0.1519836045043303  0.4672842632921706
  0.5567908190305753  0.1597476471789634  0.9242543869171971
  0.6053824146711332  0.4401442144583386  0.4545209708266811
  0.5705859415523162  0.3879223564276927  0.9719250561750288
  0.5931386362365494  0.6941085804345842  0.4496101483996596
  0.5801338372000505  0.6499775123687388  0.9742462795682744
  0.5361853539112119  0.8821042145433050  0.4748993767193875
  0.5985388234931700  0.9674735650083416  0.9333704087954245
  0.8516537671253507  0.1531492527810268  0.4814475250258078
  0.8096931427594809  0.1272643271903008  0.9476135326214612
  0.7736272056481130  0.3770726600011563  0.4655504844050602
  0.8507405928062322  0.4130506950880423  0.9704550898894959
  0.8162071651951071  0.6441026829530936  0.4904318299740301
  0.8670013032296402  0.6839565123085753  0.9835540040849560
  0.8310291352939752  0.8908611682524989  0.4432666665925625
  0.8072494711498290  0.9362349128220505  0.9522974831551356
 
 -0.12323355E-01 -0.94699558E-02 -0.27566165E-02
 -0.25025092E-02  0.63423312E-02 -0.71480556E-02
 -0.51218030E-02  0.27666287E-02 -0.53910781E-03
 -0.80429771E-03 -0.40781258E-02 -0.62374019E-03
 -0.76142921E-02  0.44053757E-02 -0.49289667E-02
  0.37141263E-02  0.16182696E-02  0.39030550E-02
 -0.12720231E-01 -0.64350529E-02  0.83681183E-03
  0.30769560E-02  0.36381456E-02  0.54283032E-02
  0.10932897E-02 -0.72836619E-03 -0.11910077E-01
 -0.13026244E-02  0.40335340E-02  0.23740458E-02
 -0.68986108E-03 -0.19766908E-02  0.29166627E-02
 -0.57340066E-02  0.75255489E-02  0.11891571E-01
  0.56079446E-03  0.46753576E-02  0.66706906E-03
 -0.73015173E-02  0.10059570E-02  0.23526075E-03
 -0.10380372E-01  0.12214192E-02  0.10790014E-02
  0.20055356E-02 -0.50672937E-02  0.42443451E-02
  0.74597603E-02  0.40232949E-02 -0.11619733E-02
  0.86877481E-02 -0.10768611E-01 -0.10410909E-02
 -0.11411747E-01 -0.77996392E-02  0.11515311E-01
  0.36703174E-02 -0.13455152E-01  0.24477092E-02
 -0.64486500E-02  0.84162279E-02  0.42696066E-02
 -0.88883901E-02  0.24113303E-02 -0.30988539E-02
  0.22017267E-02  0.30273824E-02 -0.10680528E-01
 -0.35527024E-02 -0.13499125E-02  0.27116231E-03
  0.38034764E-02  0.82502763E-02 -0.80143897E-02
  0.58382616E-02 -0.29411264E-02  0.91102401E-03
  0.71594008E-03  0.58352766E-03 -0.16665789E-01
 -0.85195296E-02 -0.11078595E-02  0.62830162E-02
  0.35230987E-02  0.44426084E-02 -0.42142632E-02
  0.75253385E-02  0.40729973E-02 -0.16521965E-02
 -0.46826824E-02 -0.68918161E-02  0.45241877E-02
 -0.33461132E-02  0.18730709E-02 -0.63545263E-02
 -0.23200737E-02  0.11257936E-01 -0.68179651E-02
  0.34861419E-02 -0.36611621E-04 -0.16012093E-01
  0.41840307E-02  0.16053659E-01 -0.76496190E-02
  0.32761960E-02  0.15236975E-01 -0.25121655E-03
  0.79715011E-02 -0.67934455E-02  0.16854709E-02
 -0.78194982E-02 -0.88781092E-02 -0.80618068E-02
  0.19892715E-02  0.14626510E-01 -0.35650196E-02
  0.12437547E-01  0.12269002E-02  0.33579757E-02
 -0.33688382E-02 -0.36845950E-02  0.16424703E-01
  0.62177164E-02  0.29761984E-02  0.52319431E-02
 -0.80519958E-02 -0.73331172E-02  0.84166071E-02
  0.30027884E-02  0.30061127E-03 -0.94685525E-02
  0.97617562E-02 -0.27706254E-03  0.10150967E-01
 -0.31294721E-02  0.36281414E-02 -0.40107969E-02
  0.11289119E-02  0.67936561E-02 -0.23913490E-02
 -0.59805994E-02  0.30549975E-02 -0.15857797E-02
  0.76554271E-02 -0.85811103E-02  0.78057242E-02
  0.14636260E-01  0.36163850E-02 -0.23347171E-02
 -0.15784381E-01  0.34554732E-02  0.48552837E-02
 -0.52637527E-02  0.27843992E-04 -0.20110962E-03
  0.13750135E-01 -0.87192654E-02  0.21763810E-02
 -0.56789418E-02  0.84303270E-02  0.75692848E-02
  0.39519453E-02 -0.95032001E-02  0.74241200E-02
  0.19373487E-02  0.10398732E-01  0.31463691E-02
  0.30011158E-03 -0.84894151E-02  0.40640302E-02
  0.57255847E-03  0.94765808E-02  0.58617233E-02
  0.52093350E-02 -0.60031770E-02  0.60497789E-02
 -0.12646661E-02  0.37995010E-02  0.25212727E-02
  0.70659595E-02 -0.73096456E-02  0.79581022E-02
  0.21996746E-02  0.12152325E-01 -0.21016130E-02
 -0.53485201E-02 -0.48229448E-02 -0.92883841E-04
 -0.42183632E-02  0.88717528E-02  0.10828363E-02
 -0.48098509E-02 -0.10045203E-01  0.16205056E-02
  0.80468505E-02 -0.99142859E-02 -0.33764718E-02
 -0.67545836E-02 -0.12371019E-02 -0.21910153E-02
 -0.18170533E-01  0.21549301E-02  0.42644579E-02
  0.57970796E-02  0.12302283E-02 -0.61402634E-02
  0.11073115E-01  0.37123527E-03  0.67323030E-02
  0.90767608E-02 -0.13676546E-03  0.23223153E-02
  0.32322732E-02 -0.15158805E-03  0.36342359E-02
  0.75734853E-02 -0.57325377E-02 -0.33661731E-02
  0.55029708E-02  0.51943989E-02 -0.14654766E-02
 -0.60820780E-02 -0.29481369E-02 -0.87904942E-02
  0.90871519E-02 -0.28411243E-02 -0.57900794E-02
 -0.37539112E-02 -0.43687881E-02  0.67519349E-03
 -0.89805269E-02 -0.34510203E-02  0.26838773E-02
  0.39695940E-02 -0.62301673E-02  0.92196731E-03
 -0.58120460E-02 -0.36407115E-02 -0.32695411E-02
  0.48211403E-04 -0.24223897E-02 -0.36956963E-02
  0.25844512E-02 -0.53542665E-02 -0.37666338E-02
  0.10372674E-01  0.16860733E-02  0.77093101E-02
  0.31682313E-02 -0.29468597E-02 -0.21681221E-02
  0.64879644E-03  0.32857533E-02 -0.10596448E-01
 -0.79752179E-02 -0.51919653E-02 -0.38371451E-02
  0.92796995E-03 -0.10500419E-02 -0.44385526E-02
  0.53286954E-02 -0.18434111E-02  0.94079958E-02
 -0.30348392E-02 -0.10729205E-01 -0.44956711E-02
  0.82538258E-02 -0.16615364E-02  0.10692317E-01
  0.21714599E-02 -0.26686880E-02 -0.88288802E-02
  0.47548494E-04  0.13863291E-01 -0.82516253E-02
  0.20050300E-02  0.54675800E-03  0.50182763E-02
  0.12392354E-01  0.64983187E-02 -0.20981561E-02
  0.21630064E-02 -0.64660340E-02  0.14196842E-01
 -0.84748439E-02 -0.31046482E-02  0.65440622E-02
  0.25356893E-01  0.14448400E-01 -0.16629000E-02
  0.50539279E-01 -0.37895881E-02  0.77151034E-02
 -0.30638370E-01 -0.26128700E-01 -0.23828247E-01
  0.11333491E-01  0.43423953E-02 -0.19810019E-01
 -0.91727463E-02  0.41196154E-01  0.11260761E-01
 -0.28198048E-01  0.29912520E-02  0.24013972E-01
 -0.38117309E-01 -0.13234082E-01  0.42174273E-02
  0.34679450E-01  0.39853254E-01  0.17355113E-01
 -0.18279841E-01 -0.15591403E-03  0.20459307E-01
 -0.22380586E-01  0.11210600E-01 -0.66167888E-02
 -0.27449944E-01  0.86152109E-02  0.90014456E-02
 -0.14577177E-01  0.92762470E-02 -0.12577277E-01
 -0.15919177E-01 -0.37092786E-01 -0.14236493E-01
  0.91334953E-02  0.31344497E-01  0.19508047E-01
 -0.26500874E-02 -0.35740633E-01  0.36261387E-01
 -0.35211584E-01 -0.29189592E-02  0.17396400E-01
  0.33721921E-01  0.19333870E-01 -0.11419999E-01
  0.16956460E-01  0.56414580E-02  0.36528129E-01
 -0.37545444E-01  0.10099826E-01 -0.15510154E-01
  0.28856218E-02 -0.19197144E-01  0.21004418E-01
  0.51684076E-02  0.13173727E-02  0.92976284E-02
  0.36669179E-01 -0.14098824E-01 -0.30083715E-02
 -0.19001575E-01  0.63967459E-02 -0.31870921E-01
  0.34777165E-02 -0.47678104E-01  0.24788022E-01
 -0.10815512E-01 -0.17344369E-01 -0.11987039E-01
 -0.37903703E-01  0.19688624E-01  0.19347014E-01
 -0.44542663E-01 -0.10972452E-01 -0.25845822E-01
  0.19631540E-01 -0.38351991E-01 -0.42913072E-01
 -0.45888101E-02  0.22607683E-04  0.41420080E-03
 -0.25988991E-01 -0.36690453E-01  0.21502704E-01
  0.95374054E-03 -0.10517503E-01 -0.19523336E-01
 -0.21678820E-02  0.17862904E-01 -0.46322978E-01
  0.37147156E-01  0.94324694E-02 -0.31285782E-04
  0.43846765E-01  0.12797274E-01 -0.11764309E-01
 -0.61750479E-02  0.22111410E-01 -0.25828173E-01
  0.21308238E-01  0.35375926E-02  0.27454611E-02
  0.45166109E-01 -0.65140200E-02 -0.19450895E-01
  0.38356005E-01 -0.51424295E-02  0.10277559E-01
 -0.17108376E-01  0.37774000E-01 -0.21657732E-01
  0.20529592E-01  0.25193742E-01  0.27122432E-02
  0.97098463E-02  0.82795394E-03  0.22299038E-01
 -0.26823537E-01  0.26258712E-01 -0.77409185E-02
 -0.20589790E-01 -0.52691543E-01 -0.45955801E-01
  0.22506329E-02 -0.35945101E-01 -0.77766354E-02
  0.33609097E-01  0.24604881E-01 -0.87347391E-01
 -0.45383289E-02  0.75875744E-02 -0.28958432E-01
  0.14668694E-01 -0.50122781E-01  0.33499535E-02
 -0.18299404E-01  0.27368865E-01 -0.22182179E-01
 -0.67464288E-02  0.30743942E-01 -0.79455895E-02
  0.29610139E-01  0.27142994E-02 -0.20932550E-02
 -0.88247224E-02 -0.17688168E-01  0.26940577E-01
 -0.60438099E-02 -0.43078007E-01  0.40241444E-01
 -0.81225067E-02 -0.11662522E-01  0.88208039E-02
  0.17872105E-01 -0.11136745E-01  0.93284465E-02
  0.14045260E-01 -0.48922834E-01 -0.42617299E-01
 -0.96076680E-02 -0.42277989E-02  0.43312576E-01
  0.16839325E-01  0.47129572E-01  0.10832750E-01
 -0.43053874E-01 -0.11368029E-01 -0.46938769E-01
  0.16905924E-01 -0.95939957E-03  0.46926456E-02
  0.57870684E-01  0.47864926E-01  0.21952590E-01
 -0.22607148E-01 -0.77667941E-03 -0.15321208E-01
  0.32239201E-01  0.44183977E-01  0.72598055E-03
  0.42699102E-01  0.39186994E-02  0.43435691E-01
  0.98285125E-02  0.11080396E-01  0.44471527E-01
 
           1
  0.500000000000000     
  0.32428413E+00  0.43252436E-03 -0.55285453E-20  0.00000000E+00
  0.99902557E+00  0.11717866E-02  0.25712708E+00
  0.84277559E-02  0.13358201E-01  0.73742109E+00
  0.10275082E-01  0.25811018E+00  0.23001128E+00
  0.99883238E+00  0.26180099E+00  0.74376799E+00
  0.12120132E-01  0.49372435E+00  0.26163841E+00
  0.99267155E+00  0.50509949E+00  0.70443183E+00
  0.99001805E+00  0.73108982E+00  0.26809487E+00
  0.29875519E-01  0.75997689E+00  0.75247638E+00
  0.24184322E+00  0.98569071E+00  0.26381381E+00
  0.25498607E+00  0.12768641E-01  0.76943104E+00
  0.24432282E+00  0.23867347E+00  0.25410974E+00
  0.24330899E+00  0.25810388E+00  0.77178924E+00
  0.24891587E+00  0.48726090E+00  0.29617328E+00
  0.25400385E+00  0.51581490E+00  0.76750186E+00
  0.25096728E+00  0.75289824E+00  0.26407453E+00
  0.27376833E+00  0.76916404E+00  0.77995091E+00
  0.48184711E+00  0.99413030E+00  0.24152391E+00
  0.49638590E+00  0.99504215E+00  0.72283238E+00
  0.49262591E+00  0.24199526E+00  0.28749864E+00
  0.49052768E+00  0.24070419E+00  0.71026602E+00
  0.50529854E+00  0.50364551E+00  0.23443164E+00
  0.50152729E+00  0.50849165E+00  0.75479115E+00
  0.48267282E+00  0.73737676E+00  0.25637678E+00
  0.51804630E+00  0.76096253E+00  0.75495286E+00
  0.74673062E+00  0.13615929E-01  0.25059877E+00
  0.74550677E+00  0.98832143E+00  0.74402603E+00
  0.74855590E+00  0.25685247E+00  0.25637402E+00
  0.74691455E+00  0.24311004E+00  0.74785860E+00
  0.74627972E+00  0.49197040E+00  0.24288000E+00
  0.76428750E+00  0.50817355E+00  0.74732776E+00
  0.74800716E+00  0.76237953E+00  0.24490977E+00
  0.75279636E+00  0.74271148E+00  0.74450512E+00
  0.16319079E+00  0.76555371E-01  0.14745904E+00
  0.16884362E+00  0.97993887E-01  0.62921309E+00
  0.18307907E+00  0.34942709E+00  0.15601936E+00
  0.17577522E+00  0.33965029E+00  0.60754210E+00
  0.17270054E+00  0.57917430E+00  0.14355763E+00
  0.17385128E+00  0.61090729E+00  0.64576742E+00
  0.15768262E+00  0.82023012E+00  0.15620182E+00
  0.17077894E+00  0.86278380E+00  0.61787878E+00
  0.40193698E+00  0.62388615E-01  0.11534105E+00
  0.41310193E+00  0.85048456E-01  0.61931770E+00
  0.41453232E+00  0.33635465E+00  0.12700637E+00
  0.42057331E+00  0.33163022E+00  0.62794068E+00
  0.41396069E+00  0.57162486E+00  0.12685184E+00
  0.40091428E+00  0.56507943E+00  0.64171292E+00
  0.39887651E+00  0.84020322E+00  0.13580651E+00
  0.40024615E+00  0.81965293E+00  0.62190261E+00
  0.66935873E+00  0.78164719E-01  0.11978620E+00
  0.66086138E+00  0.55596688E-01  0.61197316E+00
  0.65379713E+00  0.32615194E+00  0.12575932E+00
  0.67127858E+00  0.33174870E+00  0.63499273E+00
  0.67162532E+00  0.59274590E+00  0.11140370E+00
  0.66467279E+00  0.57710894E+00  0.64207601E+00
  0.67203461E+00  0.85227260E+00  0.13364278E+00
  0.66488823E+00  0.81682825E+00  0.62449392E+00
  0.90752996E+00  0.91083766E-01  0.10523856E+00
  0.91335451E+00  0.81111366E-01  0.61377626E+00
  0.92257304E+00  0.32828694E+00  0.10872290E+00
  0.94083208E+00  0.34397914E+00  0.60886585E+00
  0.91603469E+00  0.58012410E+00  0.13500669E+00
  0.91029615E+00  0.59310551E+00  0.62964519E+00
  0.92547694E+00  0.83459702E+00  0.13424992E+00
  0.90408242E+00  0.81881824E+00  0.63288025E+00
  0.78658954E-01  0.17131118E+00  0.35000563E+00
  0.90567239E-01  0.17992457E+00  0.87528675E+00
  0.70712483E-01  0.39744541E+00  0.37245029E+00
  0.66668874E-01  0.40933862E+00  0.85270116E+00
  0.76207811E-01  0.63833464E+00  0.37981223E+00
  0.11599914E+00  0.68365691E+00  0.89275757E+00
  0.50980273E-01  0.89861535E+00  0.38845117E+00
  0.10453726E+00  0.94402916E+00  0.86246368E+00
  0.32857226E+00  0.16045181E+00  0.36386001E+00
  0.33750072E+00  0.17838644E+00  0.83763387E+00
  0.34162099E+00  0.40936896E+00  0.37462112E+00
  0.34019322E+00  0.42015081E+00  0.89070232E+00
  0.34874558E+00  0.65385215E+00  0.39895466E+00
  0.36034112E+00  0.69686501E+00  0.89115698E+00
  0.30668356E+00  0.91324631E+00  0.39832763E+00
  0.34486050E+00  0.93438608E+00  0.85827864E+00
  0.57894892E+00  0.17246853E+00  0.35454578E+00
  0.59549003E+00  0.14079766E+00  0.84270369E+00
  0.57434250E+00  0.41650690E+00  0.35140167E+00
  0.59615797E+00  0.42359822E+00  0.87354360E+00
  0.59670853E+00  0.66894805E+00  0.35750529E+00
  0.59945463E+00  0.69298740E+00  0.88006841E+00
  0.55830497E+00  0.90005519E+00  0.38059519E+00
  0.58727521E+00  0.91166199E+00  0.85548404E+00
  0.82063204E+00  0.16266201E+00  0.38175598E+00
  0.83511446E+00  0.15422017E+00  0.84371997E+00
  0.82339404E+00  0.40096218E+00  0.36967306E+00
  0.83569346E+00  0.42521529E+00  0.86855590E+00
  0.79901195E+00  0.63650333E+00  0.38159037E+00
  0.86807019E+00  0.67841107E+00  0.87234463E+00
  0.82016286E+00  0.92478000E+00  0.35048577E+00
  0.82395110E+00  0.91133104E+00  0.86196280E+00
  0.14381197E+00  0.77836120E-01  0.45685246E-01
  0.18663855E+00  0.11739485E+00  0.52499167E+00
  0.19434620E+00  0.38229535E+00  0.48709385E-01
  0.16772655E+00  0.38319103E+00  0.52114945E+00
  0.21913022E+00  0.61291377E+00  0.56340799E-01
  0.17677026E+00  0.61603140E+00  0.53796401E+00
  0.13739619E+00  0.78150015E+00  0.54197899E-01
  0.21025301E+00  0.86807663E+00  0.52529920E+00
  0.33815321E+00  0.69707264E-01  0.54561738E-01
  0.40985093E+00  0.75639596E-01  0.51822418E+00
  0.46797020E+00  0.35557783E+00  0.41678390E-01
  0.39705547E+00  0.35753182E+00  0.52329635E+00
  0.38981480E+00  0.54195391E+00  0.16563220E-01
  0.38756835E+00  0.53029520E+00  0.55232678E+00
  0.42130357E+00  0.81114750E+00  0.38426456E-01
  0.40809382E+00  0.81572702E+00  0.52196712E+00
  0.68400522E+00  0.10694990E+00  0.16167585E-01
  0.66197672E+00  0.65490004E-01  0.49672066E+00
  0.68908545E+00  0.35251654E+00  0.25079402E-01
  0.63653059E+00  0.36105177E+00  0.54761229E+00
  0.65721154E+00  0.57508736E+00  0.10818179E-02
  0.66125284E+00  0.58213118E+00  0.53540015E+00
  0.65615619E+00  0.84064858E+00  0.25227357E-01
  0.66973165E+00  0.84898166E+00  0.53054704E+00
  0.92889484E+00  0.48983913E-01  0.26315206E-01
  0.90335675E+00  0.18766643E-01  0.53146220E+00
  0.91224471E+00  0.25313418E+00  0.47245441E-01
  0.89458615E+00  0.30379552E+00  0.51085589E+00
  0.90121048E+00  0.57274774E+00  0.32564810E-01
  0.93725120E+00  0.62321832E+00  0.53333512E+00
  0.93434087E+00  0.83520371E+00  0.36325243E-01
  0.88553670E+00  0.80251281E+00  0.51953544E+00
  0.66297222E-01  0.18189304E+00  0.45511434E+00
  0.74205396E-01  0.19637697E+00  0.98440882E+00
  0.49383111E-01  0.38447705E+00  0.48799285E+00
  0.38909229E-01  0.39905475E+00  0.95615785E+00
  0.10655207E+00  0.67944915E+00  0.46516862E+00
  0.72454790E-01  0.60714913E+00  0.95821398E+00
  0.58368483E-01  0.89145580E+00  0.50089716E+00
  0.98105212E-01  0.93978855E+00  0.96610016E+00
  0.33223116E+00  0.17766346E+00  0.47068092E+00
  0.32933959E+00  0.18745947E+00  0.95945476E+00
  0.30144555E+00  0.40322044E+00  0.47657507E+00
  0.34856947E+00  0.38429850E+00  0.99068602E+00
  0.38783039E+00  0.66707627E+00  0.49362971E+00
  0.38866598E+00  0.68291999E+00  0.99262124E+00
  0.36520147E+00  0.91392674E+00  0.47829523E+00
  0.35912338E+00  0.94944777E+00  0.95732754E+00
  0.59201614E+00  0.15340929E+00  0.46684272E+00
  0.55804290E+00  0.15987352E+00  0.92413806E+00
  0.60461789E+00  0.43932396E+00  0.45601808E+00
  0.56934439E+00  0.38592470E+00  0.97416131E+00
  0.59254202E+00  0.69356775E+00  0.45010033E+00
  0.58059336E+00  0.64946107E+00  0.97476467E+00
  0.53561506E+00  0.87983552E+00  0.47253110E+00
  0.59805495E+00  0.96727751E+00  0.93577733E+00
  0.85342281E+00  0.15533479E+00  0.48204951E+00
  0.80770051E+00  0.12673716E+00  0.94500510E+00
  0.77428390E+00  0.37702817E+00  0.46581126E+00
  0.85417451E+00  0.41527033E+00  0.97167501E+00
  0.81528125E+00  0.64406667E+00  0.48958042E+00
  0.86932051E+00  0.68600545E+00  0.98359435E+00
  0.83283480E+00  0.89104289E+00  0.44568043E+00
  0.80790110E+00  0.93674874E+00  0.95476881E+00
 -0.71181258E-03 -0.43530097E-03 -0.15477608E-03
  0.49880661E-04  0.29754583E-03 -0.40030274E-03
 -0.13828531E-03  0.13246403E-03 -0.34386797E-04
 -0.12808321E-03 -0.18048674E-03 -0.31876905E-04
 -0.19813887E-03  0.20656904E-03 -0.26761013E-03
  0.18306928E-03  0.76240503E-04  0.20942730E-03
 -0.65996209E-03 -0.30273262E-03  0.49494185E-04
  0.21279419E-03  0.16852843E-03  0.29873236E-03
  0.33113315E-04 -0.34318154E-04 -0.65991214E-03
  0.38348306E-04  0.18860655E-03  0.14810185E-03
 -0.76953374E-04 -0.97433979E-04  0.16357330E-03
 -0.60915825E-04  0.34639768E-03  0.67224294E-03
  0.12937456E-03  0.21168200E-03  0.45429912E-04
 -0.26530613E-03  0.49196392E-04  0.11502186E-04
 -0.38388048E-03  0.62141000E-04  0.62345998E-04
 -0.30352911E-04 -0.22960458E-03  0.23785975E-03
  0.38597028E-03  0.18257954E-03 -0.62552277E-04
  0.98190412E-04 -0.49871508E-03 -0.58240508E-04
 -0.63746403E-03 -0.36945254E-03  0.65615745E-03
 -0.16995344E-03 -0.63032071E-03  0.12752702E-03
 -0.65192252E-04  0.38819219E-03  0.23440084E-03
 -0.30178756E-03  0.11716947E-03 -0.17479350E-03
  0.14974802E-03  0.13631353E-03 -0.58782164E-03
 -0.16812028E-03 -0.57017701E-04  0.15830267E-04
  0.34523213E-03  0.38692640E-03 -0.44266950E-03
  0.16283605E-03 -0.13813845E-03  0.57775239E-04
  0.44419086E-04  0.34807108E-04 -0.91709190E-03
 -0.37277375E-03 -0.53528472E-04  0.35088735E-03
  0.24541834E-03  0.20479824E-03 -0.23188805E-03
  0.40273962E-03  0.19069442E-03 -0.10049122E-03
 -0.34876120E-03 -0.31606346E-03  0.26140883E-03
 -0.92146338E-04  0.84423256E-04 -0.36187434E-03
  0.16516743E-03  0.52237656E-03 -0.38147223E-03
  0.13862466E-03 -0.38046114E-05 -0.89158811E-03
  0.54283498E-03  0.74604782E-03 -0.39618658E-03
  0.48463137E-03  0.70385260E-03 -0.26677440E-04
  0.16588294E-03 -0.31247032E-03  0.70709323E-04
 -0.51733699E-03 -0.40602382E-03 -0.44609704E-03
  0.42109787E-03  0.67870399E-03 -0.19584089E-03
  0.53754439E-03  0.65614707E-04  0.16107345E-03
 -0.21327705E-03 -0.17690329E-03  0.90924325E-03
  0.31558540E-03  0.14075393E-03  0.26422564E-03
 -0.48996596E-03 -0.33576639E-03  0.46528610E-03
  0.13444532E-03  0.58144501E-06 -0.50213998E-03
  0.38766231E-03 -0.19763919E-04  0.57188733E-03
 -0.52528847E-04  0.14839074E-03 -0.25868011E-03
  0.19582250E-03  0.32836379E-03 -0.12156639E-03
 -0.17754911E-03  0.13235416E-03 -0.11735757E-03
  0.11215601E-03 -0.40221483E-03  0.42519070E-03
  0.67482202E-03  0.15829358E-03 -0.10729107E-03
 -0.55819083E-03  0.15873326E-03  0.26814014E-03
 -0.20450575E-03 -0.73160431E-05  0.99248111E-05
  0.35395093E-03 -0.40025331E-03  0.12470786E-03
 -0.30765406E-04  0.39384609E-03  0.41409130E-03
 -0.55563994E-04 -0.43532061E-03  0.40942067E-03
  0.32149859E-03  0.48463480E-03  0.16589682E-03
 -0.19168950E-03 -0.39514348E-03  0.22115087E-03
  0.24306326E-03  0.45116180E-03  0.33585647E-03
  0.72439625E-04 -0.26936774E-03  0.33712767E-03
  0.50360502E-04  0.18361954E-03  0.14734260E-03
  0.11289778E-03 -0.33470020E-03  0.41503830E-03
  0.36087726E-03  0.56061019E-03 -0.11930677E-03
 -0.32092448E-03 -0.22411028E-03 -0.65795065E-04
  0.32376652E-04  0.40634375E-03  0.75636691E-04
 -0.42398087E-03 -0.46207428E-03  0.83511590E-04
  0.10347071E-03 -0.45907514E-03 -0.20604625E-03
 -0.30494785E-03 -0.61067229E-04 -0.14355483E-03
 -0.69036712E-03  0.87048747E-04  0.23291522E-03
  0.26747780E-03  0.59959489E-04 -0.31231698E-03
  0.46431483E-03  0.23862557E-04  0.37185025E-03
  0.35784764E-03 -0.45413206E-05  0.12105034E-03
  0.13988362E-03  0.11919433E-05  0.21082892E-03
  0.17604524E-03 -0.26222211E-03 -0.18668962E-03
  0.33840607E-03  0.23523904E-03 -0.13154869E-03
 -0.30886202E-03 -0.13648571E-03 -0.50716619E-03
  0.29980706E-03 -0.13203299E-03 -0.32374909E-03
 -0.24581886E-03 -0.20288445E-03  0.42997216E-04
 -0.44245966E-03 -0.14902027E-03  0.14021999E-03
 -0.35461705E-05 -0.28452292E-03  0.53563969E-04
 -0.31512745E-03 -0.16551776E-03 -0.15329197E-03
 -0.60850513E-04 -0.92435393E-04 -0.23962142E-03
 -0.15721015E-04 -0.25293985E-03 -0.21567333E-03
  0.44777220E-03  0.78782654E-04  0.41455827E-03
  0.64333331E-04 -0.13692072E-03 -0.11169443E-03