P-3m1                                   
1.0
       12.4501695633         0.0000000000         0.0000000000
       -6.2251106248        10.7821482026         0.0000000000
        0.0000000000         0.0000000000         8.9975166321
   Mg    O    H
   32   64   64
Direct
    -0.000000000        -0.000000000         0.250000000
    -0.000000000        -0.000000000         0.750000000
     0.000000004         0.250000004         0.250000000
     0.000000004         0.250000004         0.750000000
     0.000000007         0.500000007         0.250000000
     0.000000007         0.500000007         0.750000000
    -0.000000001         0.749999967         0.250000000
    -0.000000001         0.749999967         0.750000000
     0.250000000        -0.000000000         0.250000000
     0.250000000        -0.000000000         0.750000000
     0.250000004         0.250000004         0.250000000
     0.250000004         0.250000004         0.750000000
     0.250000007         0.500000007         0.250000000
     0.250000007         0.500000007         0.750000000
     0.249999989         0.749999967         0.250000000
     0.249999989         0.749999967         0.750000000
     0.500000000        -0.000000000         0.250000000
     0.500000000        -0.000000000         0.750000000
     0.499999994         0.250000004         0.250000000
     0.499999994         0.250000004         0.750000000
     0.500000007         0.500000007         0.250000000
     0.500000007         0.500000007         0.750000000
     0.499999989         0.749999967         0.250000000
     0.499999989         0.749999967         0.750000000
     0.750000019        -0.000000000         0.250000000
     0.750000019        -0.000000000         0.750000000
     0.750000013         0.250000004         0.250000000
     0.750000013         0.250000004         0.750000000
     0.750000007         0.500000007         0.250000000
     0.750000007         0.500000007         0.750000000
     0.750000018         0.749999967         0.250000000
     0.750000018         0.749999967         0.750000000
     0.166666739         0.083333246         0.134106354
     0.166666739         0.083333246         0.634106341
     0.166666737         0.333333250         0.134106354
     0.166666737         0.333333250         0.634106341
     0.166666736         0.583333253         0.134106354
     0.166666736         0.583333253         0.634106341
     0.166666750         0.833333257         0.134106354
     0.166666750         0.833333257         0.634106341
     0.416666729         0.083333246         0.134106354
     0.416666729         0.083333246         0.634106341
     0.416666742         0.333333250         0.134106354
     0.416666742         0.333333250         0.634106341
     0.416666736         0.583333253         0.134106354
     0.416666736         0.583333253         0.634106341
     0.416666745         0.833333257         0.134106354
     0.416666745         0.833333257         0.634106341
     0.666666710         0.083333246         0.134106354
     0.666666710         0.083333246         0.634106341
     0.666666704         0.333333250         0.134106354
     0.666666704         0.333333250         0.634106341
     0.666666736         0.583333253         0.134106354
     0.666666736         0.583333253         0.634106341
     0.666666731         0.833333257         0.134106354
     0.666666731         0.833333257         0.634106341
     0.916666767         0.083333246         0.134106354
     0.916666767         0.083333246         0.634106341
     0.916666800         0.333333250         0.134106354
     0.916666800         0.333333250         0.634106341
     0.916666794         0.583333253         0.134106354
     0.916666794         0.583333253         0.634106341
     0.916666788         0.833333257         0.134106354
     0.916666788         0.833333257         0.634106341
     0.083333245         0.166666747         0.365893659
     0.083333245         0.166666747         0.865893659
     0.083333259         0.416666761         0.365893659
     0.083333259         0.416666761         0.865893659
     0.083333253         0.666666765         0.365893659
     0.083333253         0.666666765         0.865893659
     0.083333225         0.916666724         0.365893659
     0.083333225         0.916666724         0.865893659
     0.333333240         0.166666747         0.365893659
     0.333333240         0.166666747         0.865893659
     0.333333259         0.416666761         0.365893659
     0.333333259         0.416666761         0.865893659
     0.333333258         0.666666765         0.365893659
     0.333333258         0.666666765         0.865893659
     0.333333245         0.916666724         0.365893659
     0.333333245         0.916666724         0.865893659
     0.583333260         0.166666747         0.365893659
     0.583333260         0.166666747         0.865893659
     0.583333259         0.416666761         0.365893659
     0.583333259         0.416666761         0.865893659
     0.583333273         0.666666765         0.365893659
     0.583333273         0.666666765         0.865893659
     0.583333264         0.916666724         0.365893659
     0.583333264         0.916666724         0.865893659
     0.833333279         0.166666747         0.365893659
     0.833333279         0.166666747         0.865893659
     0.833333240         0.416666761         0.365893659
     0.833333240         0.416666761         0.865893659
     0.833333273         0.666666765         0.365893659
     0.833333273         0.666666765         0.865893659
     0.833333245         0.916666724         0.365893659
     0.833333245         0.916666724         0.865893659
     0.166666739         0.083333246         0.026056603
     0.166666739         0.083333246         0.526056592
     0.166666737         0.333333250         0.026056603
     0.166666737         0.333333250         0.526056592
     0.166666736         0.583333253         0.026056603
     0.166666736         0.583333253         0.526056592
     0.166666750         0.833333257         0.026056603
     0.166666750         0.833333257         0.526056592
     0.416666729         0.083333246         0.026056603
     0.416666729         0.083333246         0.526056592
     0.416666742         0.333333250         0.026056603
     0.416666742         0.333333250         0.526056592
     0.416666736         0.583333253         0.026056603
     0.416666736         0.583333253         0.526056592
     0.416666745         0.833333257         0.026056603
     0.416666745         0.833333257         0.526056592
     0.666666710         0.083333246         0.026056603
     0.666666710         0.083333246         0.526056592
     0.666666704         0.333333250         0.026056603
     0.666666704         0.333333250         0.526056592
     0.666666736         0.583333253         0.026056603
     0.666666736         0.583333253         0.526056592
     0.666666731         0.833333257         0.026056603
     0.666666731         0.833333257         0.526056592
     0.916666767         0.083333246         0.026056603
     0.916666767         0.083333246         0.526056592
     0.916666800         0.333333250         0.026056603
     0.916666800         0.333333250         0.526056592
     0.916666794         0.583333253         0.026056603
     0.916666794         0.583333253         0.526056592
     0.916666788         0.833333257         0.026056603
     0.916666788         0.833333257         0.526056592
     0.083333245         0.166666747         0.473943408
     0.083333245         0.166666747         0.973943408
     0.083333259         0.416666761         0.473943408
     0.083333259         0.416666761         0.973943408
     0.083333253         0.666666765         0.473943408
     0.083333253         0.666666765         0.973943408
     0.083333225         0.916666724         0.473943408
     0.083333225         0.916666724         0.973943408
     0.333333240         0.166666747         0.473943408
     0.333333240         0.166666747         0.973943408
     0.333333259         0.416666761         0.473943408
     0.333333259         0.416666761         0.973943408
     0.333333258         0.666666765         0.473943408
     0.333333258         0.666666765         0.973943408
     0.333333245         0.916666724         0.473943408
     0.333333245         0.916666724         0.973943408
     0.583333260         0.166666747         0.473943408
     0.583333260         0.166666747         0.973943408
     0.583333259         0.416666761         0.473943408
     0.583333259         0.416666761         0.973943408
     0.583333273         0.666666765         0.473943408
     0.583333273         0.666666765         0.973943408
     0.583333264         0.916666724         0.473943408
     0.583333264         0.916666724         0.973943408
     0.833333279         0.166666747         0.473943408
     0.833333279         0.166666747         0.973943408
     0.833333240         0.416666761         0.473943408
     0.833333240         0.416666761         0.973943408
     0.833333273         0.666666765         0.473943408
     0.833333273         0.666666765         0.973943408
     0.833333245         0.916666724         0.473943408
     0.833333245         0.916666724         0.973943408
