P-3m1                                   
   1.00000000000000     
    12.4501695632999994    0.0000000000000000    0.0000000000000000
    -6.2251106248000001   10.7821482026000002    0.0000000000000000
     0.0000000000000000    0.0000000000000000    8.9975166321000000
   Mg   O    H 
    32    64    64
Direct
  0.9969556315571222  0.9899200457163626  0.2635101799603374
  0.0077557216618419  0.0076778631870798  0.7455491046940964
  0.9992501632063563  0.2398585213410579  0.2396618515293519
  0.9835215598610317  0.2361166762874492  0.7610500891524812
  0.0102148754182485  0.5129368019681638  0.2507770977770382
  0.0016553084281343  0.5025674759763700  0.7631416828092590
  0.0114880896451349  0.7557230404677846  0.2599454571626459
  0.9987364748076646  0.7565740911858887  0.7386096943985598
  0.2511336842131810  0.0088715375946419  0.2600646486450122
  0.2454591749182639  0.9980149205313595  0.7457219246277483
  0.2485378017753501  0.2646430893682438  0.2183630422688997
  0.2415353360742556  0.2415610367064113  0.7661131343637139
  0.2568631101009478  0.4966159245892323  0.2813365288280291
  0.2457612749998262  0.4988066499231487  0.7628460320755036
  0.2631968551336725  0.7560215126210246  0.2503532404600629
  0.2469109260054663  0.7517248929513025  0.7649783680757019
  0.5086269079290137  0.9966873626558993  0.2487339336167034
  0.4962928440194676  0.9993140825110255  0.7520268685966888
  0.5032788147205904  0.2550607163988524  0.2324719880437957
  0.5016186204621378  0.2448762118101044  0.7618750447954669
  0.5034640934735388  0.4943065134001170  0.2505797772528959
  0.4907982401849091  0.4987229269638874  0.7509651405427488
  0.4974305838427512  0.7423569203383253  0.2587711436256931
  0.4917199107307489  0.7323331286513365  0.7404851145139616
  0.7502894077959016  0.9966405083940867  0.2553716577404759
  0.7352086511321012  0.9984297855921798  0.7435529488117144
  0.7549249808832010  0.2565437810573070  0.2489935646615656
  0.7473947027519251  0.2553804594847645  0.7405387293368644
  0.7489447222478373  0.5094935594792664  0.2355237444626298
  0.7410108066112802  0.4985746233968624  0.7404104888550369
  0.7544276999356051  0.7426544470843135  0.2569762666475203
  0.7402238496992399  0.7400734743022688  0.7433794088669965
  0.1622813515989031  0.0899047221432405  0.1304219667454487
  0.1742131848125409  0.0763829699915974  0.6299756137781666
  0.1722018415318615  0.3515043265405587  0.1231135741610121
  0.1730727187047367  0.3372763049703743  0.6465138333770936
  0.1748113020398397  0.5883743055492129  0.1314570269703277
  0.1538625198969982  0.5741337136987019  0.6384444779710390
  0.1720320022632373  0.8363879563801778  0.1158583401483869
  0.1643915411585685  0.8212772398024327  0.6262913709971749
  0.4184831072691006  0.0866345625621361  0.1419594410605204
  0.4126322578716048  0.0791109554329818  0.6241401491628514
  0.4340862671063585  0.3515341240643125  0.1147460311306337
  0.4262681875775818  0.3358825631365331  0.6489429122301140
  0.4333563432070190  0.5848887206433062  0.1430152339818440
  0.4116995924933850  0.5771211325965893  0.6250991552919012
  0.4182463447090717  0.8372310086337630  0.1172805859452319
  0.4169146204510641  0.8303191310369697  0.6283781260158823
  0.6772365418611468  0.0773272529426050  0.1308181013168272
  0.6544808459953184  0.0750098858119339  0.6391164952129577
  0.6820980387385750  0.3455220044583248  0.1334486952327085
  0.6627686990981101  0.3335358218049742  0.6359119230436694
  0.6755922083450969  0.5901695822263833  0.1332825916557954
  0.6585130825776597  0.5772392974817996  0.6413485873569099
  0.6706931591995350  0.8280466618776161  0.1502357988614000
  0.6618827324110238  0.8291863756533288  0.6440777482355190
  0.9129977097723471  0.0728101670263832  0.1295620893582880
  0.9178053165516552  0.0774554373253955  0.6181408902317519
  0.9131280758735761  0.3253953472865020  0.1120105550012518
  0.9154726035727968  0.3469313771213627  0.6226129859584093
  0.9127957659889697  0.5798433806098682  0.1208553640418088
  0.9159906428876019  0.5923384117648389  0.6060420635646957
  0.9218208805928645  0.8305265337515711  0.1372471538251145
  0.9020218891571409  0.8317514395341761  0.6338690811517735
  0.0877859181019751  0.1801551157347077  0.3579709651080401
  0.0746263932456852  0.1572385225405952  0.8757940986358325
  0.0772292220437351  0.4231669360017476  0.3685983317506692
  0.0708561875058239  0.4005184276518484  0.8723721759215568
  0.0969467968009339  0.6813606964275652  0.3658387531084530
  0.0798380424034928  0.6660284766943525  0.8799518262827900
  0.0859819102507557  0.9196570489858512  0.3721456452038790
  0.0794956953149872  0.9259678467173031  0.8498878983769677
  0.3374711859088665  0.1820913567868734  0.3634833899906665
  0.3166354760282403  0.1535432476301635  0.8647476495994160
  0.3426379498747959  0.4072654913256021  0.3680415566549002
  0.3316243945507847  0.4168735946727947  0.8625643811916531
  0.3391642292593242  0.6658157878142312  0.3682737583547518
  0.3285992440643630  0.6606032725065331  0.8715244445949083
  0.3453345343009167  0.9302353914581518  0.3710908217634258
  0.3355569247674604  0.9203669738039012  0.8671115193579214
  0.5981269389259474  0.1760632658451924  0.3786955998671178
  0.5715598281673784  0.1592806409858440  0.8810457478052357
  0.5881085600718990  0.4133925093732385  0.3601256421431228
  0.5874860387753674  0.4282158207575787  0.8717422842133544
  0.5868970401137783  0.6594887340085767  0.3730127879817254
  0.5770578645995502  0.6534031814315868  0.8692697105148020
  0.5859834453646228  0.9073147429283548  0.3847698968027659
  0.5818327656809426  0.9140844359763416  0.8710634380945886
  0.8407657920497795  0.1662307879606358  0.3525287940284456
  0.8120814033558343  0.1615927822886846  0.8648059461472827
  0.8306360422440773  0.4125584830818236  0.3591257901077939
  0.8468272899438365  0.4325993676781479  0.8744463374062081
  0.8454026594466747  0.6754823131315090  0.3609297701492150
  0.8360308788064058  0.6689991041773271  0.8544684991239886
  0.8350852835197726  0.9141357531999915  0.3775487896819075
  0.8287180097969086  0.9255954358380334  0.8628722602813569
  0.1707841888651430  0.1005350723271396  0.0198479237769107
  0.1876111043830189  0.1191597880884113  0.5342069593258615
  0.1531026496315702  0.3687328641552171  0.0237713733181026
  0.1340285120461907  0.3238610105986366  0.5416261643162240
  0.1737214961348372  0.5901745626799808  0.0257374369606133
  0.1374295393231585  0.5326375038366792  0.5412878854221421
  0.1576278860450886  0.8494002695447140  0.0149074569640819
  0.2013722557409162  0.8549009293771178  0.5230360177571881
  0.3926365080522135  0.0633179441393649  0.0435290791947422
  0.3820445226484666  0.0941061575615907  0.5299131060658582
  0.4173889240723496  0.3627389821886917  0.0157792420095739
  0.4561098030280691  0.3361323907319536  0.5468643698938538
  0.4182518247801956  0.5849523937253519  0.0357117429761604
  0.3913382977583041  0.5454832896243164  0.5325082963421628
  0.4255703342642408  0.8562423911642609  0.0168045657226716
  0.4300268737046566  0.8272289465714334  0.5212613057994433
  0.6631830934415328  0.0652840667343085  0.0218439030876642
  0.6492295955000029  0.0826001832127084  0.5340804587548124
  0.6907436372056234  0.3367980249525615  0.0227567799902092
  0.6358548898960331  0.2975839272450223  0.5481067346620325
  0.6572984147190393  0.5976838216326761  0.0280451881441949
  0.6474939389081622  0.6015986006594908  0.5357963731134954
  0.6809633565062218  0.8049614310172940  0.0464350576620377
  0.6698886376563493  0.8279553592504288  0.5333446097948493
  0.8694321359589109  0.0595417823011988  0.0322923843166496
  0.8919140760342095  0.0266546981304906  0.5269006522052094
  0.8877631604099697  0.3549145817967233  0.0226641474516134
  0.8910924307066955  0.3674383496056580  0.5310352174474119
  0.9444845365854533  0.6456000730714736  0.0482773896137123
  0.9314885925873813  0.5803458244250114  0.5057725769054997
  0.9452766486766588  0.8351733968522440  0.0260343670318705
  0.9167446304177408  0.8141478349911722  0.5386927296632821
  0.0744052182302604  0.1660324001350141  0.4657643638095093
  0.0584233860796917  0.1664175673028254  0.9824616719968047
  0.0385401888518520  0.4064508754584191  0.4632486404294670
  0.0635286613331818  0.4176285710180366  0.9760564518597460
  0.1103111169450960  0.6969678518036693  0.4692197033829213
  0.0843882208098093  0.6676713899734675  0.9924609468475587
  0.0934617629405214  0.9238828098417821  0.4779384132845101
  0.0947636159736521  0.9410421768656437  0.9543144462453025
  0.3373224163869677  0.1950612550581111  0.4709189877904354
  0.3504276187105225  0.1705859872644115  0.9598287041601214
  0.3433803763713920  0.3770402242721264  0.4658162061987532
  0.2902829673065784  0.3773166180056937  0.9511897439390471
  0.3258901086291498  0.6651191171482130  0.4742439808625188
  0.3279522671678350  0.6640308696802895  0.9822981768513074
  0.3742622558877147  0.9409692524321881  0.4797000386549332
  0.2936835691735625  0.8945217540967128  0.9631238973032678
  0.5496396846806567  0.1568953410781866  0.4697346703619179
  0.6036639814747449  0.1617195936275349  0.9756501257511361
  0.6144755048199987  0.4187741048525820  0.4579665949401744
  0.5862759432693478  0.4143594067845293  0.9840320093874627
  0.5534016143269342  0.6668486110834236  0.4661293792650860
  0.5512174427654721  0.6363653186066418  0.9774286549491302
  0.6044206740142221  0.9287712816857397  0.4934328926506531
  0.5806972398219203  0.9041618130745713  0.9797524039716676
  0.8216360448984781  0.1773037762835775  0.4588743644839352
  0.8287714780885286  0.1934534094288413  0.9695691925503773
  0.7965181800553546  0.4084929472674538  0.4510238781977293
  0.8579121987044512  0.4705996815295077  0.9698916723507000
  0.8201142724353415  0.6457322708369876  0.4644018289438439
  0.8088255552617127  0.6462325612746572  0.9545701480193336
  0.8149787151291291  0.8783796377807064  0.4745885902527938
  0.8613673961029078  0.9356269002185903  0.9602013650100456
 
  0.18402066E-02 -0.37551353E-03 -0.10886306E-02
 -0.37412173E-03  0.73932084E-02 -0.20674298E-02
 -0.29282518E-02 -0.42396238E-02 -0.96135295E-03
  0.43394019E-02 -0.18820606E-02 -0.51973136E-02
 -0.25173114E-02 -0.12796739E-02 -0.70668308E-02
 -0.88417087E-02 -0.14468743E-02  0.28111162E-02
 -0.58982171E-02  0.71546125E-02 -0.51146760E-02
  0.31751043E-02  0.78674677E-02  0.18380957E-02
 -0.24529102E-02  0.46472352E-02  0.42475881E-02
 -0.93613314E-03 -0.48366982E-03 -0.48246480E-02
 -0.52591589E-03  0.34348243E-02  0.52799269E-02
  0.72461759E-03  0.66465990E-02 -0.32319851E-02
  0.12875875E-02  0.93816181E-05 -0.12525300E-02
  0.57774565E-03 -0.29331304E-02 -0.27242725E-02
  0.65864414E-02  0.68537502E-02  0.23335950E-02
 -0.28718358E-02 -0.34976478E-02 -0.10538280E-01
 -0.41640793E-03  0.65160607E-03 -0.38001832E-02
  0.22478341E-02  0.14269392E-03  0.24329145E-02
 -0.65350102E-02  0.15840507E-02  0.20900588E-02
  0.34062730E-02 -0.54582706E-02  0.18897511E-02
  0.19714235E-02  0.91679858E-03  0.15920966E-02
 -0.13472270E-01 -0.67057710E-02  0.14721999E-02
  0.45628721E-03 -0.59203749E-02 -0.34911511E-02
  0.76223544E-03  0.52599346E-03 -0.68751366E-03
 -0.50987424E-02 -0.19277883E-02  0.87599375E-03
  0.59601919E-02  0.21595461E-02 -0.16453093E-02
  0.13545169E-02  0.86590666E-03 -0.67472000E-02
  0.65136881E-02 -0.32198577E-02  0.54017241E-02
  0.12974686E-02 -0.12284339E-02  0.49400077E-02
  0.29702951E-03  0.18934042E-02  0.72555297E-03
 -0.65428669E-02  0.58838799E-03 -0.11714864E-02
 -0.11889816E-02 -0.34543065E-02  0.22521772E-02
  0.10847960E-02 -0.29913044E-02  0.12118062E-03
  0.75222627E-02  0.19503008E-02 -0.98577716E-02
 -0.27723497E-02  0.48988052E-02  0.48957549E-03
  0.18923165E-02  0.79843566E-02 -0.93215241E-03
  0.49404559E-02 -0.11522893E-02  0.11450263E-02
 -0.95156453E-02 -0.64564111E-02 -0.21555205E-02
 -0.10222901E-02 -0.14560178E-01  0.17679050E-02
 -0.41973611E-02  0.25730265E-03  0.38425077E-02
  0.40526209E-02 -0.55962820E-03  0.11211964E-01
 -0.22117596E-03 -0.50742216E-02  0.33007155E-02
  0.25669108E-02  0.60475953E-02  0.49474851E-02
 -0.84182859E-03 -0.45967861E-02  0.43113229E-02
  0.19227888E-02 -0.21457745E-02  0.83613483E-03
  0.12148123E-02  0.34197293E-02 -0.28119939E-02
  0.87219825E-02 -0.82705118E-02  0.43347899E-02
 -0.73348707E-03  0.32204232E-03 -0.87650576E-02
 -0.88490783E-02 -0.68677915E-02  0.53142084E-02
  0.49134969E-02  0.44466314E-02  0.62054401E-02
  0.30904528E-03  0.47462858E-02 -0.52330699E-02
 -0.28324471E-02 -0.22650299E-02 -0.22954598E-03
 -0.63542715E-02  0.18616195E-02  0.39803956E-02
  0.60421780E-03  0.25073029E-02 -0.75488893E-02
 -0.10674711E-02 -0.17905388E-02  0.10657567E-01
 -0.97681090E-02  0.53742207E-02  0.11246685E-01
 -0.65445758E-02 -0.15066627E-02  0.19507689E-04
  0.48397193E-02 -0.95677228E-03 -0.20039740E-02
 -0.49969217E-02 -0.43638660E-02 -0.32869907E-02
 -0.94273564E-03 -0.20775722E-02 -0.54295489E-02
  0.54958632E-02 -0.50656778E-02  0.14354244E-02
  0.86097721E-02 -0.36548595E-02 -0.69051654E-02
  0.83823084E-02 -0.15223599E-03  0.16324006E-02
  0.67860310E-02  0.25357177E-02  0.19839662E-02
 -0.29484661E-03 -0.17554473E-02 -0.10764201E-01
 -0.60105952E-02 -0.11299944E-02  0.25065737E-02
  0.95847121E-02 -0.22855446E-02 -0.31769718E-02
  0.77482794E-03  0.87400924E-02  0.95943871E-02
 -0.16094533E-02 -0.13488094E-02  0.76056011E-04
  0.72727761E-02  0.33738104E-02  0.94989962E-02
  0.69927840E-02  0.16940769E-02 -0.61859560E-02
 -0.75530823E-02 -0.30252891E-03  0.47865893E-03
  0.21176763E-02  0.43160928E-02  0.13364887E-02
  0.34966825E-02 -0.46443329E-02 -0.35323289E-02
 -0.35709364E-03 -0.11345798E-01 -0.59440090E-03
 -0.71923630E-02  0.11592053E-02 -0.85066859E-02
 -0.74219545E-02  0.36827444E-02 -0.33966190E-02
 -0.20896517E-02  0.36673008E-02  0.72672463E-02
  0.17070918E-01  0.25660137E-02  0.10056684E-02
  0.20708378E-02 -0.53307797E-02 -0.49955482E-02
 -0.28042062E-02  0.42207276E-03 -0.82580035E-03
  0.28425694E-02  0.52314520E-02  0.56475425E-03
  0.14843422E-02  0.41752397E-02 -0.12843988E-02
 -0.75664241E-03 -0.37933704E-02 -0.18933056E-02
 -0.33050300E-04  0.63955818E-02  0.71995173E-02
  0.34131409E-02  0.67027504E-02  0.42282011E-02
  0.28208078E-02  0.32144062E-02 -0.50710446E-02
 -0.73223507E-02 -0.49650315E-02  0.15491860E-04
  0.99187509E-02  0.28158554E-02 -0.30564987E-02
 -0.17292613E-02  0.17441456E-02  0.38237874E-03
 -0.26575200E-02 -0.81244202E-02 -0.72012374E-02
 -0.38259345E-02  0.54478025E-04  0.12261787E-01
 -0.37820837E-02 -0.64201442E-02  0.18836974E-02
 -0.60505548E-03  0.15388673E-02  0.31636638E-02
  0.57563864E-02  0.35654392E-03  0.70447468E-02
  0.27393066E-02  0.34543305E-02  0.11596312E-01
  0.22524556E-02 -0.44164730E-02  0.18064020E-02
 -0.29032357E-01  0.12227676E-01  0.56471871E-02
 -0.37125951E-01  0.67915289E-01  0.13724225E-03
  0.64861165E-02  0.20146813E-01 -0.11882366E-01
 -0.89093922E-02 -0.23858960E-01 -0.30824141E-03
  0.18753262E-01  0.13146403E-01 -0.42197596E-01
 -0.17958449E-01 -0.22401516E-01  0.11486390E-01
 -0.20010991E-02  0.26308513E-01  0.14634919E-01
  0.21945560E-01 -0.18891959E-01 -0.28577303E-01
 -0.38045017E-02  0.16902076E-01  0.18178939E-01
  0.39840597E-02 -0.52383375E-02 -0.33150974E-01
 -0.17227499E-01  0.18321004E-01  0.14811461E-01
  0.88870832E-02  0.77523455E-02 -0.16698290E-01
  0.23654256E-01 -0.24748192E-02 -0.53920515E-01
 -0.31869050E-01 -0.82403179E-02 -0.32530727E-01
  0.22348587E-01 -0.34753958E-01  0.14039278E-01
  0.87294804E-02 -0.62540089E-02  0.60051991E-02
  0.83887274E-02  0.99486730E-02  0.62426742E-02
  0.62637449E-02 -0.88297405E-02 -0.74984757E-02
 -0.68455021E-02  0.18531407E-01 -0.12159129E-02
 -0.10343611E-01  0.26421936E-02 -0.22970143E-02
  0.22272999E-01  0.56262646E-01  0.57352310E-02
  0.29307808E-01 -0.60430294E-03  0.38928666E-01
  0.90614561E-02  0.50890207E-02  0.21342776E-01
 -0.15739896E-01 -0.10539945E-01 -0.38657801E-01
  0.12557948E-01 -0.12243000E-01  0.45496710E-02
 -0.13906688E-01  0.12421088E-01 -0.39837772E-01
 -0.24005831E-01 -0.84256102E-02  0.69731458E-03
  0.31545476E-01 -0.34720662E-01  0.11492310E-01
  0.20310008E-01 -0.34878136E-02  0.24954184E-01
 -0.21549273E-01 -0.56881282E-02 -0.14542001E-01
  0.56358527E-02 -0.19165390E-02 -0.30543165E-01
 -0.81038589E-03  0.32441076E-01  0.55429172E-03
 -0.96753026E-02  0.23531687E-01  0.33511356E-01
 -0.31329605E-02 -0.69033775E-02 -0.48452034E-01
  0.16926774E-01 -0.16646220E-01  0.21552667E-02
  0.29952250E-02  0.10487252E-01  0.32851770E-02
  0.10611534E-01 -0.27673250E-01  0.17276440E-01
  0.40020105E-01  0.19648926E-01 -0.13532722E-01
  0.29987990E-02 -0.36014745E-02  0.16486725E-01
  0.47822763E-02 -0.18053655E-01  0.29754339E-01
 -0.43711925E-01  0.22374121E-01  0.53495273E-02
  0.11006446E-02 -0.26979299E-02  0.59994600E-02
 -0.17122279E-01  0.60426011E-02 -0.24948432E-01
 -0.44935826E-03  0.11872786E-01 -0.17266325E-01
 -0.34320595E-01 -0.10043868E-01  0.86315581E-02
  0.10890780E-01  0.70562724E-02 -0.13262981E-01
 -0.50113064E-02  0.43326164E-02  0.16990138E-01
  0.47795181E-01 -0.76435738E-02  0.45337927E-02
  0.12295682E-01 -0.42585730E-01  0.91158840E-02
 -0.53947052E-02  0.37589734E-01  0.53067210E-03
 -0.34731885E-02 -0.81382346E-02  0.98309472E-02
 -0.40671897E-01 -0.34474269E-02 -0.20954494E-01
 -0.26093229E-01  0.10563350E-01 -0.15668054E-02
  0.95335637E-02 -0.16966859E-01  0.14051600E-01
 -0.66573914E-01 -0.19620068E-01 -0.39429621E-01
  0.20693792E-02 -0.26076110E-01  0.11875681E-01
 -0.21044684E-01 -0.40154771E-01  0.14672201E-01
  0.23605610E-02  0.18861876E-02 -0.17201746E-01
 -0.51584593E-01  0.76002901E-02 -0.17945402E-01
  0.68578041E-02  0.36533874E-01 -0.90503150E-02
  0.23054108E-02 -0.24446254E-01  0.12193179E-01
 -0.24540269E-02 -0.15272305E-01 -0.21810397E-01
  0.43137720E-03 -0.13471668E-01  0.10692371E-01
 
           1
  0.500000000000000     
  0.65119692E+00 -0.29096068E-02  0.27642727E-19  0.00000000E+00
  0.99702083E+00  0.98990263E+00  0.26344968E+00
  0.79121200E-02  0.80207081E-02  0.74543422E+00
  0.99903426E+00  0.23966192E+00  0.23960843E+00
  0.98365219E+00  0.23602940E+00  0.76076127E+00
  0.10084109E-01  0.51287746E+00  0.25038439E+00
  0.12666765E-02  0.50250038E+00  0.76329790E+00
  0.11417108E-01  0.75605482E+00  0.25966123E+00
  0.99904641E+00  0.75693893E+00  0.73871184E+00
  0.25114293E+00  0.90870436E-02  0.26030069E+00
  0.24541037E+00  0.99799249E+00  0.74545381E+00
  0.24859632E+00  0.26480237E+00  0.21865645E+00
  0.24171855E+00  0.24186926E+00  0.76593353E+00
  0.25691504E+00  0.49661636E+00  0.28126692E+00
  0.24571647E+00  0.49867063E+00  0.76269464E+00
  0.26362028E+00  0.75633934E+00  0.25048292E+00
  0.24671449E+00  0.75156270E+00  0.76439275E+00
  0.50862529E+00  0.99671758E+00  0.24852275E+00
  0.49638643E+00  0.99932070E+00  0.75216207E+00
  0.50305310E+00  0.25513417E+00  0.23258813E+00
  0.50162886E+00  0.24462310E+00  0.76198006E+00
  0.50356452E+00  0.49434903E+00  0.25066825E+00
  0.49010171E+00  0.49841196E+00  0.75104695E+00
  0.49731164E+00  0.74208238E+00  0.25857714E+00
  0.49176272E+00  0.73235752E+00  0.74044691E+00
  0.75003994E+00  0.99655111E+00  0.25542034E+00
  0.73549809E+00  0.99852993E+00  0.74346152E+00
  0.75499946E+00  0.25658394E+00  0.24861862E+00
  0.74758164E+00  0.25523115E+00  0.74083891E+00
  0.74896835E+00  0.50943659E+00  0.23579827E+00
  0.74106664E+00  0.49866243E+00  0.74045081E+00
  0.75417858E+00  0.74268173E+00  0.25691117E+00
  0.74009601E+00  0.73991329E+00  0.74350456E+00
  0.16225556E+00  0.89766007E-01  0.13042870E+00
  0.17456050E+00  0.76473411E-01  0.62942781E+00
  0.17220409E+00  0.35173150E+00  0.12314078E+00
  0.17333384E+00  0.33764656E+00  0.64646203E+00
  0.17498299E+00  0.58832087E+00  0.13152066E+00
  0.15333067E+00  0.57383431E+00  0.63832469E+00
  0.17165335E+00  0.83571276E+00  0.11595658E+00
  0.16422894E+00  0.82128917E+00  0.62650490E+00
  0.41863289E+00  0.86608611E-01  0.14258250E+00
  0.41250572E+00  0.78875649E-01  0.62432357E+00
  0.43432958E+00  0.35181457E+00  0.11502097E+00
  0.42612780E+00  0.33566940E+00  0.64918250E+00
  0.43338381E+00  0.58478921E+00  0.14306170E+00
  0.41182767E+00  0.57727972E+00  0.62494289E+00
  0.41840486E+00  0.83684748E+00  0.11752147E+00
  0.41689263E+00  0.83033407E+00  0.62789104E+00
  0.67672192E+00  0.77008773E-01  0.13111342E+00
  0.65478127E+00  0.75216089E-01  0.63946134E+00
  0.68222050E+00  0.34574210E+00  0.13315789E+00
  0.66260243E+00  0.33343079E+00  0.63589917E+00
  0.67538018E+00  0.59025591E+00  0.13350379E+00
  0.65859548E+00  0.57735557E+00  0.64092909E+00
  0.67060877E+00  0.82796363E+00  0.15082805E+00
  0.66161505E+00  0.82943559E+00  0.64470274E+00
  0.91269994E+00  0.72740299E-01  0.12956317E+00
  0.91797750E+00  0.77411069E-01  0.61802953E+00
  0.91282622E+00  0.32519298E+00  0.11182789E+00
  0.91538657E+00  0.34683503E+00  0.62231126E+00
  0.91289902E+00  0.57960847E+00  0.12093513E+00
  0.91625167E+00  0.59216893E+00  0.60565834E+00
  0.92215399E+00  0.83051947E+00  0.13733787E+00
  0.90235321E+00  0.83186903E+00  0.63397933E+00
  0.87733374E-01  0.18007371E+00  0.35737279E+00
  0.74358806E-01  0.15718612E+00  0.87593339E+00
  0.77561151E-01  0.42306095E+00  0.36842178E+00
  0.71089957E-01  0.40092373E+00  0.87290534E+00
  0.96850887E-01  0.68129815E+00  0.36584298E+00
  0.80208345E-01  0.66618493E+00  0.88047969E+00
  0.86302021E-01  0.91973561E+00  0.37180189E+00
  0.79185348E-01  0.92595382E+00  0.84991450E+00
  0.33765631E+00  0.18229151E+00  0.36355766E+00
  0.31666822E+00  0.15332788E+00  0.86455135E+00
  0.34236054E+00  0.40673935E+00  0.36800853E+00
  0.33136243E+00  0.41692735E+00  0.86209166E+00
  0.33895155E+00  0.66598657E+00  0.36808501E+00
  0.32860036E+00  0.66077334E+00  0.87192829E+00
  0.34607960E+00  0.93035439E+00  0.37114671E+00
  0.33551649E+00  0.92011977E+00  0.86683391E+00
  0.59802411E+00  0.17608284E+00  0.37864971E+00
  0.57179529E+00  0.15952324E+00  0.88107713E+00
  0.58826498E+00  0.41358613E+00  0.36005427E+00
  0.58736770E+00  0.42803991E+00  0.87163707E+00
  0.58704400E+00  0.65978532E+00  0.37341287E+00
  0.57735035E+00  0.65371401E+00  0.86950468E+00
  0.58617126E+00  0.90746380E+00  0.38448809E+00
  0.58142358E+00  0.91385419E+00  0.87106430E+00
  0.84122942E+00  0.16636137E+00  0.35235894E+00
  0.81205240E+00  0.16167366E+00  0.86482720E+00
  0.83034094E+00  0.41218173E+00  0.35872561E+00
  0.84667490E+00  0.43260189E+00  0.87512774E+00
  0.84510191E+00  0.67518459E+00  0.36103445E+00
  0.83604226E+00  0.66907047E+00  0.85464431E+00
  0.83532473E+00  0.91415229E+00  0.37794027E+00
  0.82890811E+00  0.92575562E+00  0.86351668E+00
  0.17077224E+00  0.10033027E+00  0.19948307E-01
  0.18672868E+00  0.11972682E+00  0.53452078E+00
  0.15318639E+00  0.37188230E+00  0.23779000E-01
  0.13475613E+00  0.32479528E+00  0.54096585E+00
  0.17281049E+00  0.58906815E+00  0.25720308E-01
  0.13848749E+00  0.53324714E+00  0.53894293E+00
  0.15638726E+00  0.84836145E+00  0.15545766E-01
  0.20190190E+00  0.85612093E+00  0.52384929E+00
  0.39307980E+00  0.62441868E-01  0.41941013E-01
  0.38228363E+00  0.94889957E-01  0.53092333E+00
  0.41742747E+00  0.36249607E+00  0.13937013E-01
  0.45584275E+00  0.33698199E+00  0.54768746E+00
  0.41878848E+00  0.58531189E+00  0.34783804E-01
  0.39223087E+00  0.54536852E+00  0.52951189E+00
  0.42409941E+00  0.85586026E+00  0.14996804E-01
  0.43011857E+00  0.82561730E+00  0.52204148E+00
  0.66338866E+00  0.64994050E-01  0.22177617E-01
  0.64979716E+00  0.83061533E-01  0.53442737E+00
  0.69079046E+00  0.33638856E+00  0.22340083E-01
  0.63600965E+00  0.29844328E+00  0.54803917E+00
  0.65694428E+00  0.59780635E+00  0.27917541E-01
  0.64969296E+00  0.60420767E+00  0.53611508E+00
  0.68212635E+00  0.80493341E+00  0.48598358E-01
  0.67037054E+00  0.82819135E+00  0.53453065E+00
  0.86855564E+00  0.59053014E-01  0.30144136E-01
  0.89213453E+00  0.26086954E-01  0.52715348E+00
  0.88749267E+00  0.35549058E+00  0.20450327E-01
  0.88993299E+00  0.36704763E+00  0.53107397E+00
  0.94494635E+00  0.64398997E+00  0.48916028E-01
  0.93222337E+00  0.58018408E+00  0.50715930E+00
  0.94427934E+00  0.83490962E+00  0.25226255E-01
  0.91692653E+00  0.81405896E+00  0.53699542E+00
  0.75124870E-01  0.16753679E+00  0.46579517E+00
  0.58580444E-01  0.16750880E+00  0.98432393E+00
  0.38254303E-01  0.40613075E+00  0.46055612E+00
  0.63822473E-01  0.41685664E+00  0.97617622E+00
  0.11067457E+00  0.69745418E+00  0.46940226E+00
  0.84172733E-01  0.66638810E+00  0.99342101E+00
  0.95524565E-01  0.92479399E+00  0.47718639E+00
  0.94800542E-01  0.94087517E+00  0.95523063E+00
  0.33709587E+00  0.19422405E+00  0.47257246E+00
  0.34919092E+00  0.17162354E+00  0.96012598E+00
  0.34336202E+00  0.37691511E+00  0.46614960E+00
  0.28973544E+00  0.37759683E+00  0.94980334E+00
  0.32614735E+00  0.66566969E+00  0.47328448E+00
  0.32634107E+00  0.66356511E+00  0.98277784E+00
  0.37486324E+00  0.94129647E+00  0.47896300E+00
  0.29358277E+00  0.89472267E+00  0.96406805E+00
  0.55138192E+00  0.15654089E+00  0.46998662E+00
  0.60317036E+00  0.15974477E+00  0.97615670E+00
  0.61513043E+00  0.42051725E+00  0.45799608E+00
  0.58594776E+00  0.41398201E+00  0.98457832E+00
  0.55168829E+00  0.66668874E+00  0.46496492E+00
  0.55041446E+00  0.63685517E+00  0.97734159E+00
  0.60441014E+00  0.92798448E+00  0.49421375E+00
  0.57756870E+00  0.90325197E+00  0.97756126E+00
  0.82111454E+00  0.17609455E+00  0.45953431E+00
  0.82699527E+00  0.19159131E+00  0.97038454E+00
  0.79665671E+00  0.40858042E+00  0.45006796E+00
  0.85601678E+00  0.47095213E+00  0.96889443E+00
  0.82123678E+00  0.64742645E+00  0.46389889E+00
  0.80835132E+00  0.64509892E+00  0.95524773E+00
  0.81452605E+00  0.87767142E+00  0.47337657E+00
  0.86107236E+00  0.93500218E+00  0.96079555E+00
  0.64606212E-04 -0.21945216E-04 -0.55133872E-04
  0.16616096E-03  0.34517598E-03 -0.11068075E-03
 -0.21269842E-03 -0.20027355E-03 -0.51247006E-04
  0.12844476E-03 -0.88312961E-04 -0.28416644E-03
 -0.12784655E-03 -0.56596601E-04 -0.38980630E-03
 -0.38703661E-03 -0.67277938E-04  0.16058630E-03
 -0.69352486E-04  0.33033548E-03 -0.28261465E-03
  0.31181996E-03  0.36870503E-03  0.10185710E-03
  0.74702282E-05  0.21395619E-03  0.23727066E-03
 -0.51991019E-04 -0.19894561E-04 -0.26730403E-03
  0.56668736E-04  0.16345227E-03  0.28645431E-03
  0.18175217E-03  0.30465877E-03 -0.17309525E-03
  0.54957376E-04  0.10544877E-05 -0.64108559E-04
 -0.41241341E-04 -0.13363572E-03 -0.14655983E-03
  0.42429334E-03  0.31686350E-03  0.13159314E-03
 -0.19646628E-03 -0.15908417E-03 -0.57791242E-03
 -0.18198427E-05  0.27302846E-04 -0.21048923E-03
  0.94090792E-04  0.99703977E-05  0.13257963E-03
 -0.22679885E-03  0.73323156E-04  0.11411507E-03
  0.12437782E-04 -0.25495713E-03  0.10252958E-03
  0.97473487E-04  0.38748061E-04  0.85819207E-04
 -0.69789410E-03 -0.30784975E-03  0.80915107E-04
 -0.12531964E-03 -0.27805395E-03 -0.18952166E-03
  0.41043489E-04  0.17429267E-04 -0.42579123E-04
 -0.25016070E-03 -0.87692060E-04  0.48182598E-04
  0.28323342E-03  0.10197642E-03 -0.97618070E-04
  0.73323240E-04  0.43681318E-04 -0.37172083E-03
  0.18472959E-03 -0.14770656E-03  0.29511887E-03
  0.18764633E-04 -0.54397593E-04  0.27231588E-03
  0.50013001E-04  0.84638479E-04  0.38588989E-04
 -0.24812965E-03  0.21751927E-04 -0.62981149E-04
 -0.13153516E-03 -0.16493025E-03  0.11779016E-03
 -0.29943006E-04 -0.13844176E-03  0.12585449E-04
  0.34955791E-03  0.81649555E-04 -0.54010914E-03
  0.22980815E-05  0.22933060E-03  0.21834563E-04
  0.27351231E-03  0.37773784E-03 -0.32400561E-04
  0.17172440E-03 -0.53389923E-04  0.50057816E-04
 -0.53692785E-03 -0.30067301E-03 -0.12116124E-03
 -0.37906961E-03 -0.67541232E-03  0.82126621E-04
 -0.16841402E-03  0.17030408E-05  0.22244259E-03
  0.14800198E-03 -0.27995385E-04  0.60688102E-03
 -0.12822418E-03 -0.23875226E-03  0.18075865E-03
  0.24857286E-03  0.29039477E-03  0.25776994E-03
 -0.13645597E-03 -0.20614694E-03  0.25084131E-03
  0.33715513E-04 -0.98876912E-04  0.52405817E-04
  0.12131311E-03  0.14723547E-03 -0.19253965E-03
  0.15795006E-03 -0.37755141E-03  0.20609321E-03
 -0.20299028E-04  0.16240901E-04 -0.48994056E-03
 -0.50513689E-03 -0.31896124E-03  0.29752260E-03
  0.29680280E-03  0.20005088E-03  0.34315168E-03
  0.12867605E-03  0.22784075E-03 -0.27266868E-03
 -0.17684096E-03 -0.11911133E-03 -0.55374683E-04
 -0.20574845E-03  0.85505180E-04  0.22965601E-03
  0.86016652E-04  0.11108292E-03 -0.39448774E-03
 -0.82808656E-04 -0.79034551E-04  0.60177688E-03
 -0.26651726E-03  0.25049941E-03  0.63934345E-03
 -0.29629629E-03 -0.70768469E-04  0.49799973E-05
  0.17126352E-03 -0.47155842E-04 -0.11786602E-03
 -0.30024500E-03 -0.20650449E-03 -0.18449023E-03
 -0.84793774E-04 -0.89810302E-04 -0.31490136E-03
  0.98454051E-04 -0.23519857E-03  0.70048410E-04
  0.26481018E-03 -0.16794995E-03 -0.40407162E-03
  0.32509244E-03 -0.81368260E-05  0.10845685E-03
  0.32756745E-03  0.11180675E-03  0.91748629E-04
 -0.54858620E-04 -0.75732835E-04 -0.60067260E-03
 -0.26880997E-03 -0.58713511E-04  0.13575153E-03
  0.32273576E-03 -0.10759818E-03 -0.16383697E-03
  0.22711476E-03  0.39912596E-03  0.53388679E-03
 -0.95237295E-04 -0.58331928E-04  0.21612269E-04
  0.36546192E-03  0.15205589E-03  0.52164034E-03
  0.31654819E-03  0.78034306E-04 -0.33441518E-03
 -0.31210488E-03 -0.53960935E-05  0.23942550E-04
  0.18435405E-03  0.20295583E-03  0.73829602E-04
  0.31670981E-04 -0.21644751E-03 -0.18299811E-03
 -0.27495980E-03 -0.53128905E-03 -0.25034204E-04
 -0.26312061E-03  0.54202926E-04 -0.46613405E-03
 -0.21046499E-03  0.16965707E-03 -0.18606693E-03
  0.93578180E-06  0.16866794E-03  0.39771989E-03
  0.74247521E-03  0.12209453E-03  0.44837373E-04
 -0.34783450E-04 -0.24439144E-03 -0.27465256E-03
 -0.98699314E-04  0.22739862E-04 -0.40028679E-04
  0.23617438E-03  0.23881557E-03  0.55415359E-04
  0.15993949E-03  0.19307584E-03 -0.52782769E-04
 -0.11662968E-03 -0.16692794E-03 -0.11937203E-03