P4_32_12                                
   1.00000000000000     
     4.1639957218868799   -0.0000000000000000   -0.0000000000000000
    -0.0000000000000000    4.1639957218868799    0.0000000000000000
     0.0000000000000000    0.0000000000000000    7.6475357231823224
   Mg   O    H 
     4     8     8
Direct
  0.7308177530809009  0.7308177530809009  0.5000000000000000
  0.2691822469190990  0.2691822469190990 -0.0000000000000000
  0.7691822469190991  0.2308177680809056  0.2500000000000000
  0.2308177680809056  0.7691822469190991  0.7500000169999979
  0.2496012232619346  0.7645405156155775  0.0131035798765005
  0.7503987467380631  0.2354594993844276  0.5131035838765007
  0.7354594843844225  0.7496012532619369  0.7631036008764985
  0.2645404866155781  0.2503987767380655  0.2631035678764995
  0.7496012532619369  0.7354594843844225  0.2368964161234992
  0.2503987767380655  0.2645404866155781  0.7368964321235006
  0.7645405156155775  0.2496012232619346  0.9868964161234993
  0.2354594993844276  0.7503987467380631  0.4868964161234992
  0.2573735591916329  0.4428672950990718  0.3421169428067384
  0.7426264698083729  0.5571326759009225  0.8421169428067382
  0.0571326939009238  0.7573735301916271  0.0921169348067377
  0.9428673240990775  0.2426264408083668  0.5921169598067361
  0.5571326759009225  0.7426264698083729  0.1578830731932629
  0.4428672950990718  0.2573735591916329  0.6578830901932610
  0.7573735301916271  0.0571326939009238  0.9078830731932631
  0.2426264408083668  0.9428673240990775  0.4078830731932629
