P-3m1                                   
   1.00000000000000     
     3.0507830948232608    0.00 0.00
    -1.5253975740838546    2.6420522478301223    0.00
     0.00 0.00    4.3211348807603462
   Mg   O    H 
     1     2     2
Direct
  0.000000  0.000000  0.5000000000000000
  0.666667  0.333333  0.2594732466180446
  0.333333  0.666667  0.7405267533819553
  0.666667  0.333333  0.0344536703158827
  0.333333  0.666667  0.9655463296841174
